@relation BEED_Data-weka.filters.unsupervised.attribute.NumericToNominal-R17

@attribute X1 numeric
@attribute X2 numeric
@attribute X3 numeric
@attribute X4 numeric
@attribute X5 numeric
@attribute X6 numeric
@attribute X7 numeric
@attribute X8 numeric
@attribute X9 numeric
@attribute X10 numeric
@attribute X11 numeric
@attribute X12 numeric
@attribute X13 numeric
@attribute X14 numeric
@attribute X15 numeric
@attribute X16 numeric
@attribute y {0,1,2,3}

@data
-166,-142,-105,-54,-2,26,30,21,12,4,8,-10,-40,-87,-128,-145,0
-3,-5,-4,2,-5,-3,-4,3,-2,-7,3,-2,0,-6,3,-4,3
38,19,-7,-20,35,10,-14,-1,10,16,-10,-2,17,0,-9,7,1
1,-2,4,-11,-12,7,-4,0,-3,1,-4,-6,-2,0,-4,-6,2
12,7,2,15,14,10,10,2,10,11,1,5,13,5,10,-1,1
5,18,21,20,18,13,7,-6,-22,-40,-54,-47,-31,-12,3,20,0
-6,8,4,-4,2,5,-1,-3,-9,17,2,-8,8,5,2,-12,1
3,4,-5,11,-1,-3,8,8,6,6,-1,7,15,-3,4,3,3
13,1,14,3,3,8,27,-6,14,8,24,-17,21,11,-3,0,1
-9,6,-1,-5,-11,-1,2,1,5,3,-5,-14,14,-12,-22,8,1
4,-5,0,-3,7,-7,-2,-2,-3,-17,0,-1,-7,-6,-5,-4,2
-28,-29,-17,-19,30,71,39,-12,-66,-89,-114,-102,-41,11,39,46,0
-2,-3,-7,4,-3,0,-2,-3,5,-9,-11,-8,1,-12,-14,2,3
2,-10,0,5,14,-12,2,-7,7,-4,2,1,8,7,-3,-6,2
-7,-5,-2,-6,-17,-4,3,-2,-11,10,-6,-10,-6,-2,-3,-6,2
44,11,0,9,42,12,10,1,38,23,4,5,53,2,11,4,1
90,126,102,81,22,22,15,9,-9,-21,7,59,103,99,19,-70,0
1,16,1,4,4,9,2,7,15,23,29,-13,13,38,22,-21,1
-8,-2,13,10,-5,0,20,-2,4,-5,-3,6,5,1,-6,2,1
9,4,0,-21,1,4,-14,1,-1,14,8,-27,11,4,-9,-12,1
5,-20,-1,-4,-4,-13,-6,3,-4,1,-10,-14,-3,-8,-21,4,1
1,0,-9,-6,2,-8,-12,4,-10,6,0,9,-2,-4,10,1,1
21,-4,-12,-28,-1,-3,-17,-3,11,-11,-4,-9,-2,-4,-17,9,1
-6,2,2,-5,-9,5,0,-3,1,0,1,-3,-5,2,2,-2,2
4,7,7,11,2,5,10,11,5,4,5,8,15,9,2,-4,3
3,10,0,-5,3,5,-1,0,2,8,8,-10,6,6,-2,-2,3
-8,-6,-4,-10,-12,-4,-3,-9,-37,6,-5,-3,-31,-8,-2,2,2
-3,12,-3,3,-3,8,1,3,-2,4,6,-6,7,-7,2,-1,2
-14,-16,-5,6,26,43,54,50,48,50,59,54,49,42,28,9,0
17,24,27,22,13,19,24,26,44,50,46,40,36,17,-11,-18,0
2,-6,-3,-11,9,-4,-8,-14,-8,-5,2,-6,-19,-1,11,-8,3
7,4,-1,-3,7,7,2,-8,-1,12,14,-5,-8,7,7,13,3
12,4,10,-8,12,12,-2,-5,18,4,7,-20,11,7,-4,-7,1
2,5,-4,1,8,2,-12,6,-2,-4,-5,10,2,-1,-7,6,1
-9,-3,4,5,10,-10,8,-11,25,23,13,9,-1,54,22,-5,1
4,-10,-6,-1,0,-2,-10,1,2,6,3,-9,-6,9,0,-2,2
44,9,-31,-65,-89,-96,-97,-92,-64,-26,25,59,56,23,-16,-48,0
-50,-84,-115,-139,-138,-112,-71,-34,-10,15,29,46,64,65,40,-9,0
5,0,5,-9,6,2,1,-7,-3,2,3,-6,-1,-6,6,-3,3
-1,7,-4,1,-4,4,-1,5,-1,-2,-6,-1,-8,-1,-4,5,3
0,-6,1,17,9,-11,9,4,-4,6,-4,5,-12,4,10,3,3
-6,4,1,9,0,2,1,6,-9,-9,-1,3,-24,12,-6,3,2
-3,-8,-5,4,-4,-6,-4,3,-1,-12,1,3,0,-6,2,-6,3
-71,-63,-63,-74,-94,-116,-105,-57,16,87,129,145,128,79,18,-51,0
-44,-33,-15,-6,0,1,-1,-18,-27,-34,-26,-8,5,18,2,-18,0
-142,-125,-88,-36,2,22,20,0,-23,-58,-84,-116,-133,-143,-142,-125,0
-2,-24,-64,-47,-23,-12,13,10,-41,-95,-116,-139,-147,-135,-77,-48,0
11,9,14,-11,13,5,11,-5,22,11,7,-44,11,3,-6,-12,1
21,-3,-7,4,29,-12,0,-2,37,4,-5,5,39,0,0,2,2
-19,5,-1,-20,-12,-18,-4,-1,6,7,8,-19,0,8,-1,-5,1
12,-5,4,-27,-1,9,-17,-8,10,9,8,-25,12,-6,-7,4,3
3,3,-6,10,5,0,-1,6,6,-2,0,4,8,6,-6,0,3
-3,19,12,-3,-8,13,13,8,2,13,3,-6,5,4,1,2,2
-21,-4,6,5,-21,-4,4,7,-22,9,33,-40,-18,9,4,-15,1
4,-8,2,1,-3,3,-1,0,-6,-2,1,1,-4,-1,1,-2,2
3,1,1,-4,-19,4,-1,16,6,-16,-2,-14,-7,-13,-8,3,3
36,32,34,29,14,-10,-28,-18,4,40,62,63,47,30,21,7,0
10,1,10,8,27,0,6,-5,9,13,7,9,9,12,13,5,3
-24,-10,6,21,37,57,64,59,45,25,-3,-27,-50,-56,-45,-12,0
-6,7,-2,4,-5,5,-1,4,-11,5,4,6,-6,-1,6,3,2
-3,-11,4,-3,-5,-6,-4,2,-4,0,-1,-4,7,-12,-4,1,2
5,-2,-3,4,-1,8,-1,-2,0,-5,-2,8,-2,6,-3,0,2
7,-4,4,3,6,2,3,-2,-4,-3,-8,5,-4,-8,-2,4,1
1,4,5,-5,-1,8,-4,2,6,-8,1,8,7,-4,1,3,2
-124,-121,-89,-43,-15,-14,-35,-68,-84,-75,-50,-38,-34,-50,-73,-78,0
1,1,5,-11,-4,1,0,-2,0,1,-4,-1,-2,7,-12,2,3
68,46,26,11,28,57,45,23,83,93,35,30,38,26,4,21,0
-80,-68,-63,-69,-75,-92,-107,-116,-104,-85,-67,-62,-76,-91,-100,-89,0
5,0,-7,-9,12,-2,-13,-8,2,-8,0,-5,7,-11,-11,3,3
-2,-8,-11,-7,-11,-4,-10,-3,-5,-7,-7,-9,-12,-2,-8,-5,2
-22,-1,-16,11,-14,-6,-16,8,-8,19,-29,-5,7,-14,-28,12,1
25,17,-1,-10,30,9,-5,-4,6,13,-7,1,13,-2,-3,5,1
-5,-5,-3,-2,-5,-6,-3,-1,7,-10,-8,0,0,-6,-6,1,2
5,-40,-88,-125,-140,-146,-146,-130,-95,-55,-17,31,78,118,145,161,0
33,1,-6,21,29,12,9,-1,20,-6,-12,44,17,-4,19,13,1
-7,-10,0,-8,-4,15,22,15,9,14,-1,-10,-27,-41,-41,15,0
3,5,1,3,3,1,1,7,1,2,-3,-9,1,-2,-9,2,3
-14,13,7,12,-5,14,3,5,-12,5,-16,6,-2,-7,-10,2,1
-6,5,3,-4,-8,-6,8,3,3,22,27,-36,13,21,0,-18,1
75,63,25,-23,-70,-102,-125,-135,-111,-75,-29,10,38,53,53,56,0
75,81,79,68,52,36,23,25,27,26,29,25,6,-26,-40,-37,0
-3,3,7,-16,-5,8,-5,-8,-3,6,-4,-7,-8,-5,3,2,3
-132,-91,-52,-9,30,64,72,66,72,38,21,-8,-48,-58,-56,-2,0
-1,11,1,3,25,2,1,-14,7,5,8,19,26,-6,24,-6,3
-5,1,-2,6,8,-10,-4,7,-1,2,-4,6,6,-8,2,4,2
-10,-3,2,-10,-10,-5,-5,-1,-2,13,3,-16,1,7,-6,-3,1
-28,-11,8,31,43,50,48,57,48,19,-16,-42,-47,-39,-35,-47,0
-4,1,-4,-9,-16,3,-5,2,-6,7,-3,-7,-15,6,3,-2,2
-33,-32,-26,-15,1,17,29,30,-3,-66,-143,-189,-191,-135,-63,-14,0
43,49,58,50,62,87,87,82,96,115,124,142,133,95,52,31,0
18,19,42,-36,15,12,33,-17,24,28,39,-54,19,20,10,-12,1
-37,-52,-69,-90,-98,-98,-83,-75,-70,-77,-91,-93,-76,-52,-31,-20,0
2,-10,-2,-5,-2,-10,-2,-1,7,-12,-9,-5,-2,-11,-5,-1,2
9,16,-4,-4,8,11,8,-10,8,1,3,-9,7,2,-4,-3,1
0,11,2,5,-16,19,12,3,-1,3,4,-1,-7,3,2,6,3
8,4,8,8,22,4,7,-5,6,9,6,5,1,12,9,3,3
-55,-51,-37,-16,11,12,0,-22,-37,-54,-63,-68,-87,-96,-87,-65,0
-4,3,-6,-54,-105,-130,-105,-86,-51,-30,-26,-22,-23,8,37,53,0
-5,5,1,3,4,-7,7,1,1,-2,1,-1,10,-4,-2,-5,2
-8,-7,-1,-5,-18,-5,2,-1,-11,8,-7,-8,-7,-5,-2,-5,2
-5,11,1,-5,2,7,-3,-4,-14,-4,2,-1,-13,-5,7,-6,2
0,-6,-11,2,4,-14,-8,3,-4,-11,-19,11,-4,-15,-11,6,1
-11,-11,0,-5,-10,-2,-17,3,7,-8,10,-13,-6,-1,3,0,1
5,1,6,4,11,-1,7,-2,6,-11,5,8,1,-1,5,3,2
-2,-4,-8,-17,-19,1,-10,-2,-16,4,-2,-12,-16,-6,0,-3,2
6,7,13,-6,21,-2,-2,2,21,11,7,4,28,5,3,8,1
-2,-6,-11,9,-2,-6,-2,0,-5,-6,-2,1,-5,-1,-1,-5,3
-3,-3,-4,4,-7,2,-4,3,-10,6,6,-6,-4,3,-4,2,2
-2,18,0,12,1,9,14,5,-1,3,2,5,9,-6,7,-1,2
16,-12,3,3,2,-3,7,3,43,-1,-18,-12,17,11,-11,-5,1
11,-9,-13,-8,-3,46,60,61,63,64,69,68,54,70,68,1,0
0,1,9,-6,-5,6,7,-2,-1,7,6,-3,-9,20,1,-4,2
3,4,-4,-5,-10,10,-3,1,-5,3,-3,-9,-3,-4,-9,2,2
-13,-19,-13,-2,-13,-17,-23,7,12,-21,-12,-20,-15,-10,-11,-5,1
-2,13,7,0,-21,16,4,19,1,-10,7,-18,-6,-11,-1,-2,3
7,3,-3,-3,16,-8,0,-6,-5,0,-13,3,-1,-5,-5,-3,1
3,-19,-45,-74,-103,-126,-136,-128,-120,-90,-58,-34,-18,-23,-32,-43,0
-97,-59,-1,34,52,62,64,70,62,41,-3,-67,-118,-127,-93,-35,0
-1,6,-9,6,6,-1,-3,-1,-1,0,-2,6,9,-11,2,3,2
40,5,-1,8,44,5,7,-3,38,23,7,10,44,28,9,-3,1
4,1,1,0,-13,6,2,11,1,-4,2,0,5,-5,-5,4,3
26,53,41,11,-9,-28,-35,-37,-11,12,13,-1,-13,-22,-46,-48,0
69,74,66,52,48,39,23,13,10,14,16,23,19,9,4,15,0
6,-4,1,7,10,-2,1,3,0,-1,6,1,-1,4,3,-1,2
-162,-166,-154,-140,-117,-79,-26,9,22,26,9,-15,-45,-59,-86,-123,0
1,-4,-2,-4,2,-8,-4,2,5,-5,1,0,-5,7,-4,3,2
-2,0,8,-7,-2,-3,2,2,-5,6,5,-7,-3,13,-11,-1,1
-12,7,2,3,-9,3,1,6,-19,5,2,3,-20,5,2,5,2
11,-3,-7,0,10,2,-14,2,7,9,-12,-10,15,-4,-14,-2,1
32,33,36,44,53,62,83,104,137,151,158,149,118,94,73,66,0
-1,-3,-9,-17,-19,2,-9,-3,-14,7,-1,-14,-12,-6,-1,-3,2
-4,3,2,2,-8,8,0,2,6,7,4,3,3,10,1,5,2
-5,-37,-56,-50,-48,-62,-56,-54,-73,-71,-35,-34,-46,-15,2,-28,0
-66,-30,-3,-10,-30,-53,-63,-55,-60,-73,-93,-87,-66,-28,16,53,0
-6,-17,-7,5,9,-13,1,-21,-6,-22,-14,16,5,-19,-2,-11,3
-89,-118,-111,-48,9,31,30,28,3,-28,-36,-54,-73,-80,-67,-73,0
4,9,-1,-14,-5,11,0,-7,5,4,-6,-6,-5,5,-1,-3,1
-2,-10,-9,-6,-12,-5,-9,-2,-6,-5,-6,-10,-13,-3,-8,-4,2
3,-10,-18,5,5,-21,-13,10,8,-19,-34,8,2,-32,-25,18,1
-2,-1,4,5,3,2,3,-2,11,-8,0,8,12,-2,-4,5,2
-5,7,2,5,0,7,2,0,-7,5,-3,2,-12,10,-8,6,2
-18,-10,-8,8,-25,-2,-3,2,-14,3,-4,9,-15,1,10,-2,3
-16,-14,-2,12,21,31,36,42,30,1,-40,-68,-86,-101,-98,-95,0
0,-9,-5,-2,-6,-4,-6,0,-1,3,-3,-1,9,0,-6,-6,2
-73,-95,-100,-88,-64,-48,-38,-41,-50,-51,-21,25,63,76,63,35,0
33,3,-19,-9,30,-2,-7,-13,21,-16,-10,-10,6,-7,-8,-6,1
-3,-3,-23,8,-9,-8,-8,4,12,-8,-26,12,-3,-4,-7,3,1
4,-1,-3,-6,5,-2,-7,-2,-2,0,5,-5,-11,7,-10,13,2
-97,-130,-163,-173,-165,-135,-99,-76,-55,-48,-26,-20,-14,-25,-41,-59,0
0,-6,-10,0,-8,-4,-9,5,1,8,-12,-3,6,3,-13,-3,1
-4,0,3,-1,-15,-23,-26,-27,-24,-2,10,14,19,11,5,-6,0
73,60,42,42,13,-8,10,17,10,33,76,72,46,35,12,-25,0
-6,4,8,-13,-10,2,6,-4,-6,-8,-10,9,-8,-9,1,0,1
6,6,4,-19,-9,9,3,-6,18,-1,-6,-17,13,6,-26,1,1
46,13,-22,-40,-44,-60,-55,-19,16,53,89,114,98,60,11,-39,0
-15,-16,16,8,-16,-13,9,12,-10,20,0,-20,-9,2,-1,-2,1
27,9,-5,14,33,-2,0,15,1,10,1,6,14,0,-9,13,1
-77,-78,-76,-73,-67,-53,-46,-38,-25,-15,-15,-19,-26,-51,-74,-94,0
-1,-10,11,5,-10,1,20,-8,6,16,1,-22,6,5,-11,1,1
-12,4,6,-12,-6,5,-5,-8,2,9,-3,-1,14,5,-8,-4,1
8,7,2,-2,8,10,3,-6,0,17,16,-3,-3,10,11,12,3
-101,-100,-60,-22,-16,-27,-37,3,53,89,74,26,-37,-94,-117,-120,0
-2,9,1,3,-11,8,2,11,10,5,-4,-3,2,3,-3,5,3
-10,-3,3,-2,-17,-5,5,5,0,7,-3,-25,-15,-4,4,-6,1
1,-6,-1,-1,-1,-2,1,-4,-22,6,5,5,-14,7,-1,2,2
-80,-87,-83,-67,-57,-57,-67,-67,-55,-42,-22,9,33,41,42,28,0
22,2,2,-21,-6,15,-8,5,20,18,2,-3,30,8,-1,-1,3
-6,11,17,-3,-1,10,12,-3,-7,25,24,-21,6,15,18,-17,1
-6,-2,-3,0,2,-13,1,0,-8,-3,-2,1,-3,-9,-4,3,2
11,-2,-6,-15,-11,-1,18,24,22,18,18,12,10,7,-6,-40,0
-10,-5,-6,15,6,-18,1,4,1,-14,-10,11,-8,-1,2,-5,3
-2,9,3,-7,14,5,1,-16,-2,-8,7,1,-1,-3,4,-2,3
17,12,3,-14,24,-1,3,-9,40,17,-2,-6,32,19,3,-4,1
-12,-6,-7,19,7,-19,2,4,-2,-12,-9,13,-11,1,4,-4,3
7,2,-1,-15,8,-2,-9,-3,-15,16,9,-28,-23,14,1,-11,3
0,6,5,-7,-5,8,-4,5,1,4,7,-10,-10,10,-1,2,3
3,1,-7,0,-4,12,-6,-5,-4,6,-5,-23,-12,5,-8,-10,1
39,46,27,-6,-64,-133,-180,-183,-152,-127,-108,-91,-76,-52,-8,28,0
9,-13,0,9,5,-10,-2,11,13,-3,-5,-2,16,-1,0,-10,2
-10,17,5,4,5,6,0,3,-11,-1,4,8,-5,-5,9,0,2
-6,-1,1,-9,-12,5,-10,2,4,-9,-3,-11,-8,-3,-3,-4,2
1,11,-2,2,7,-1,-4,9,-1,11,3,-8,5,5,-5,0,3
8,-1,0,-10,3,8,-4,-9,20,-15,1,-6,17,-6,-11,-1,2
-5,-5,5,-2,-1,-6,-2,2,2,1,4,-5,8,1,-2,-6,2
-45,-51,-62,-62,-53,-38,-12,6,18,21,24,21,20,25,23,13,0
-13,19,8,4,3,9,3,3,-14,0,6,9,-7,-5,12,1,2
-3,1,-5,-4,-9,-1,-2,0,-14,4,-2,-7,-5,-11,-1,-3,2
16,22,1,20,24,26,15,-5,0,10,1,7,-5,9,8,6,1
-2,0,-2,-8,-3,-2,0,-6,-7,4,4,-3,6,-10,5,-2,2
7,-1,5,0,-17,16,6,7,3,6,5,-7,-2,9,-3,1,3
15,5,19,28,32,40,57,68,76,72,71,63,61,60,27,-29,0
7,14,9,2,10,16,5,0,6,26,18,7,11,18,16,12,3
-3,-4,1,-5,10,-12,2,-10,-2,-5,-1,0,-3,-5,-4,5,2
13,23,17,-5,-33,-48,-51,-47,-28,-17,-4,5,13,10,-3,-3,0
1,-11,-6,11,-9,-5,0,9,-9,-5,5,7,-20,7,8,3,3
-70,-15,20,36,47,25,-46,-120,-168,-187,-180,-124,-73,-53,-41,-58,0
129,90,28,13,-9,-3,46,101,134,151,130,83,106,99,71,58,0
10,-5,8,4,28,-6,4,-8,7,8,5,10,6,9,10,5,3
-10,-2,-11,0,-9,-12,-7,3,-24,-1,2,-5,-28,4,-2,-3,2
16,4,4,8,23,-1,3,7,15,4,3,6,17,6,4,1,2
-22,-6,3,5,-14,-50,-90,-119,-135,-117,-80,-34,-1,37,48,41,0
72,64,16,-26,-38,-31,-19,6,53,73,58,24,-17,-55,-44,3,0
0,-11,-11,3,-9,-6,-11,7,1,6,-13,-3,4,1,-12,-2,1
20,60,94,88,48,1,-21,-10,20,55,49,12,-41,-68,-58,-17,0
-48,-32,-1,35,60,55,18,-41,-84,-123,-128,-114,-96,-88,-93,-81,0
6,0,-1,1,-1,8,-1,0,-2,7,1,8,-5,14,-1,5,2
-2,-6,0,-1,14,-15,1,-8,4,-2,4,3,5,7,1,-5,2
2,0,2,2,11,-2,7,-11,5,1,-3,-5,11,-4,-8,-1,3
7,18,10,7,9,21,5,6,6,9,8,1,8,12,3,3,3
-6,2,-2,4,-4,1,-9,10,-16,13,1,0,-9,3,3,1,2
-49,-44,-44,-39,-30,-22,-36,-67,-100,-126,-127,-106,-77,-67,-52,-41,0
-5,18,7,11,20,9,3,-3,-3,8,-4,2,-3,12,4,-11,1
-4,-31,-64,-85,-89,-81,-57,-43,-42,-59,-75,-79,-58,-12,37,69,0
1,1,-2,3,-8,6,3,2,-6,2,-8,3,-6,-1,-4,1,2
5,4,18,-19,2,5,5,-4,5,23,23,-49,1,14,-2,-10,1
-1,7,5,1,-2,6,7,2,4,10,-1,-5,2,18,-10,-1,3
7,0,9,7,11,1,7,4,6,2,-2,8,13,-6,2,5,2
-20,-23,-25,-14,-7,-8,-1,20,50,66,52,13,-29,-57,-41,-13,0
10,7,12,-5,-3,16,14,-3,25,6,5,-25,17,-6,0,1,1
-1,0,4,0,-8,5,1,6,-2,-4,-7,0,-8,-1,-5,1,3
8,-18,-11,-30,-27,5,-14,-14,3,2,5,-10,12,-1,-5,-7,3
102,62,45,-6,-46,1,45,50,57,99,122,103,87,71,39,13,0
27,46,63,89,92,75,23,-31,-90,-133,-161,-181,-191,-183,-141,-96,0
3,-35,-63,-73,-80,-115,-162,-215,-234,-215,-156,-89,-38,-1,27,57,0
3,18,14,-18,8,2,8,-1,-11,14,13,12,-1,17,22,-9,1
-6,-3,2,7,-9,5,3,1,8,-2,-1,9,-7,12,8,1,2
-95,-106,-93,-104,-115,-102,-97,-92,-100,-93,-102,-102,-88,-100,-112,-112,0
10,6,-2,14,2,10,4,13,11,5,0,23,17,4,16,1,3
8,-4,-7,3,9,2,-14,2,5,9,-13,-7,13,-3,-15,-1,1
8,-2,16,-1,14,11,5,-9,4,24,17,-7,15,19,9,-3,1
3,7,-1,-2,11,-1,-1,-5,-18,9,7,4,-9,4,7,1,2
-3,-13,-22,-22,-16,-9,-1,4,-4,-4,8,15,10,-2,-6,-16,0
-7,-5,-9,-6,-13,-8,-2,-4,-12,-10,-20,8,-16,-7,-16,5,1
-1,14,10,0,17,6,2,-1,4,11,6,-11,5,15,-7,-3,1
3,0,-1,-14,8,-1,-10,-9,-10,-2,9,-23,-29,2,7,-7,3
5,6,2,-3,5,5,-4,5,4,-5,-12,2,4,-7,-7,-2,3
2,3,3,2,-6,11,5,0,0,1,-1,0,-7,-2,5,4,2
-20,17,9,-2,-9,7,2,3,-19,-4,8,4,-20,-1,8,2,2
16,37,38,26,4,-12,-16,-15,-7,-8,-15,-27,-33,-36,-25,-1,0
23,27,37,-17,19,31,46,-23,28,-4,22,-25,9,11,9,-9,1
6,11,-1,-16,-5,11,1,-8,4,2,-3,-5,-5,0,5,-3,1
0,7,-7,-13,-17,9,-27,22,-5,-1,-8,-1,-1,-4,-11,1,1
-12,-2,-1,5,0,-4,-4,-1,-7,-3,6,4,-9,7,5,-2,2
-7,2,-3,-13,-15,-1,2,-7,-8,2,-2,-9,-10,1,-3,-6,2
6,-18,-10,13,-7,-9,1,7,8,-22,-13,17,18,-25,-6,3,3
-14,-4,-5,9,18,-12,3,-23,-14,10,3,-14,-18,14,-11,1,3
-5,0,-3,-2,-6,-2,0,-1,0,2,-2,5,6,-2,-1,2,2
1,0,0,2,-10,-4,9,7,3,-3,0,7,-2,-6,8,8,3
-54,-42,-11,-1,-1,3,-24,-70,-85,-81,-76,-47,6,20,-1,-5,0
-14,15,-11,-15,-16,12,-25,2,-11,11,-21,-5,-11,-13,-18,16,1
2,1,0,-3,1,-4,-1,3,4,-7,-2,-4,5,-8,-5,-2,2
-7,-17,-1,12,-13,-3,11,-7,7,-21,-26,21,-9,-25,-5,19,1
38,-25,-79,-97,-80,-60,-24,12,31,44,54,23,-12,-35,-31,-34,0
4,-19,-13,-16,5,-23,-9,-17,-3,-20,-12,-5,-16,-11,-8,-4,3
-4,-4,-5,14,9,-4,-11,6,0,15,-10,4,5,10,-4,-2,1
-4,-6,-3,-1,-4,-5,-6,1,-1,3,-4,-6,3,-8,1,-4,2
1,-1,4,4,-1,3,4,2,-1,3,6,10,5,2,5,6,3
2,-3,-5,8,-4,0,1,5,-1,-17,-11,7,0,-13,-7,-1,3
-222,-246,-244,-218,-165,-85,2,77,119,135,113,44,-56,-170,-257,-305,0
7,-4,-8,34,11,-7,10,15,10,-20,-7,28,22,-14,5,-1,3
-15,3,-8,-5,-9,-9,-5,-2,-1,-6,-6,-9,-10,-6,-2,-5,2
-2,-4,-6,-7,5,-12,-7,-5,-11,10,-3,-4,0,-2,-6,-1,2
85,63,29,-1,-20,5,30,51,71,86,105,114,103,67,38,30,0
-2,-4,-2,-7,-12,1,-5,1,-17,1,0,-8,-13,-5,-4,-1,2
-3,-1,2,4,-4,3,3,1,1,-6,1,9,10,-16,10,1,2
-12,-7,-15,5,-9,-9,-17,5,-8,-17,-34,24,-8,-19,-16,8,1
-1,0,-17,-51,-82,-93,-80,-57,-23,-6,-1,-6,-17,-36,-58,-70,0
-5,12,8,6,3,7,6,6,5,1,8,6,11,-3,7,4,3
-91,-72,-49,-34,-34,-46,-48,-36,-20,1,17,9,-22,-69,-98,-124,0
2,6,9,9,-5,17,8,5,9,-3,9,6,6,7,6,2,2
51,52,32,-5,-39,-51,-60,-78,-99,-120,-120,-102,-48,10,59,79,0
5,25,7,7,-5,22,10,16,12,26,14,-19,8,19,0,6,3
2,0,4,-12,-4,1,-2,-1,1,3,-4,-5,-3,8,-13,2,3
13,-24,-25,5,-6,-9,-23,5,2,-21,-10,1,2,-11,-16,-3,1
2,-2,1,2,-1,-5,6,2,8,1,-3,1,5,1,1,-1,2
-13,-4,-7,9,-8,-12,10,-4,0,-11,-26,8,5,-20,-33,18,1
-6,7,-5,-4,-4,-6,-1,2,-6,-2,-6,-1,-11,-5,5,-5,2
2,0,2,3,2,-4,6,3,13,2,-3,1,11,3,-1,-1,2
12,21,18,-21,21,11,4,-6,1,23,21,-27,6,11,6,-6,1
-64,-68,-62,-42,-33,-42,-47,-86,-74,-69,-61,-64,-73,-55,-44,-34,0
38,0,-4,10,23,13,4,4,18,1,-11,28,20,-8,11,13,1
28,17,-8,-29,-35,-25,-30,-47,-61,-66,-57,-37,-17,-6,7,32,0
5,-7,-3,-11,-2,3,-20,4,-18,-9,7,-3,-14,-5,7,-10,1
-25,-1,-14,12,-16,-7,-16,10,-7,22,-27,-7,10,-10,-28,8,1
-5,15,-3,5,-6,8,8,2,0,0,1,1,4,-8,3,3,2
15,-5,-3,1,24,-14,0,-3,32,1,-4,7,34,-3,0,5,2
-5,-17,-39,-57,-81,-97,-101,-84,-58,-31,-16,5,1,-5,-7,2,0
3,2,2,3,11,-5,-2,5,3,16,-7,-5,4,5,1,-2,1
-28,18,69,94,75,53,-4,-16,-26,-57,-59,-40,9,31,35,63,0
-20,2,10,-5,-17,-8,7,5,-16,6,26,-35,-15,5,-2,-7,1
-5,-8,-5,-1,7,-11,-5,-9,-10,-3,-7,0,-12,-9,2,-2,2
-2,5,1,2,1,4,-2,2,0,-4,-3,0,3,-9,1,0,2
-25,-7,-7,-25,-8,-25,-20,-11,28,2,-20,-20,-1,5,-17,2,1
1,-4,-3,-11,-7,-3,-9,3,2,7,-4,-8,0,7,-12,1,3
-1,4,-8,1,1,2,-4,-3,1,3,-4,-14,-6,4,-8,-4,3
8,23,21,19,2,-42,-39,-50,-78,-78,-49,-8,47,72,116,113,0
1,-11,4,-10,-5,-6,-2,-3,-1,0,1,-4,3,-4,-4,0,3
-4,-2,3,7,-5,9,6,-6,-18,3,3,8,-15,0,8,4,2
-3,-10,-5,-8,-6,-5,-8,-7,-6,-8,-6,-4,-10,-10,-3,-1,2
2,8,4,6,7,3,-4,14,1,10,4,-5,6,7,3,-5,3
12,9,5,-8,12,6,0,-1,-4,9,6,-4,-8,9,9,-4,1
13,12,3,-8,22,11,-6,-6,6,6,4,-7,6,10,-5,-3,1
9,10,11,-1,16,1,8,4,11,8,16,-17,5,5,6,1,1
-1,56,105,142,146,150,138,116,59,-9,-75,-136,-158,-149,-96,-22,0
-5,-8,-5,-14,-3,-9,-3,-17,2,-3,2,-31,-5,-4,-17,-3,3
6,12,9,-2,-4,26,9,-7,2,7,3,-4,-1,6,1,2,3
-9,-13,3,9,-16,6,-5,5,-1,-10,-17,12,-10,1,-10,2,1
-14,16,-11,-15,-15,12,-23,1,-14,11,-21,-4,-13,-17,-17,19,1
0,-4,-2,-5,-7,2,-3,-3,-2,-3,-4,-2,-2,-11,4,-3,3
-3,1,4,9,5,-5,2,8,5,-4,4,4,11,-3,1,1,2
-2,6,0,1,2,1,-2,4,12,-6,-4,-4,13,-11,-2,-2,2
-67,-32,13,53,77,113,123,112,64,15,-33,-67,-85,-100,-88,-52,0
-5,11,-3,9,5,-2,6,2,-2,6,-2,0,10,-10,-2,5,2
-10,-2,-8,5,-4,-22,-6,16,14,14,19,-18,18,32,18,-40,1
-13,-7,-7,22,7,-19,3,4,-2,-8,-8,13,-10,4,4,-2,3
4,-11,-9,-15,8,-11,-4,-24,-2,-11,-7,-13,-10,-4,-14,-4,3
3,-7,-2,-4,3,-8,-9,3,-9,-1,-5,3,-4,-11,2,2,2
2,2,4,-1,3,3,0,-1,4,3,-2,9,11,-8,6,3,3
-1,-8,-1,-5,7,-11,-5,-5,1,-2,-6,-1,7,-7,-9,2,2
-5,-17,-9,-4,-29,-8,-2,5,-8,-24,-9,-13,-37,-1,-14,-1,3
-50,-46,-44,-30,-11,-1,17,20,-14,-31,-34,-16,-22,-18,45,98,0
-11,-20,-32,10,-5,-25,-33,10,-16,-14,-25,19,-2,-14,-22,2,1
-2,11,12,-7,-7,19,8,-6,-10,4,5,-1,-8,1,4,1,2
-37,-15,-7,30,4,-29,20,-24,-25,-53,-17,62,12,-55,11,-1,3
-1,-6,7,-13,-5,-6,-4,3,2,2,5,-10,5,-2,-4,-1,3
-132,-80,-32,7,45,80,105,124,122,115,69,4,-89,-181,-236,-237,0
-6,8,-4,-3,-1,-6,-1,2,-7,-1,-3,0,-10,-1,1,-1,2
7,13,-3,10,18,1,9,1,10,3,-1,4,10,-3,2,6,3
8,8,-1,-2,-17,17,-6,19,-2,6,-7,-8,-5,1,-11,4,3
4,2,-10,7,10,-1,1,-7,8,-2,-10,7,1,-2,3,2,3
-48,-96,-123,-129,-95,-56,-14,23,56,69,58,9,-41,-97,-127,-132,0
-168,-195,-200,-187,-161,-128,-83,-37,-4,0,-12,-32,-52,-66,-71,-83,0
1,-3,3,-8,-2,-3,-8,6,-8,3,4,-24,-26,14,-15,2,3
-28,31,99,129,120,71,-26,-96,-120,-103,-78,-51,-12,14,34,51,0
-2,1,-8,-15,7,-9,-19,-2,15,1,2,-20,16,-4,-12,-2,1
3,2,-10,1,20,-6,-11,-7,2,-1,8,-6,16,1,-11,-3,3
5,13,-4,22,23,-11,12,10,8,3,-13,8,10,-6,-5,6,3
-25,2,-2,-13,-37,5,2,-7,-36,-7,-4,-18,-39,-16,-5,-5,2
-9,0,-2,-1,-2,-3,-7,0,14,-12,-6,-3,6,-8,-1,-3,2
-42,12,57,97,93,72,-2,-90,-125,-135,-140,-128,-100,-44,8,62,0
-22,-23,-18,0,29,70,106,147,165,158,129,93,48,5,-18,-31,0
3,9,-7,-2,-4,14,5,-13,0,4,0,-8,-9,15,-2,-9,1
-4,4,23,-10,-4,8,18,-10,9,18,28,-43,7,16,1,-13,1
27,61,107,151,162,120,21,-100,-211,-259,-246,-200,-156,-117,-80,-54,0
32,39,38,-39,21,28,43,-24,12,33,55,-33,18,40,20,-11,1
4,10,8,1,5,6,9,2,14,4,13,-11,5,13,7,-5,1
0,10,8,5,6,7,5,5,4,5,8,5,9,4,6,4,3
-2,0,2,16,-12,9,8,10,-10,4,11,11,-20,11,23,2,3
0,8,10,0,-17,15,10,10,2,7,8,4,4,6,3,7,2
0,-6,-8,-8,-23,10,-2,-6,-6,-7,2,-7,-13,-1,-6,2,3
69,78,67,56,46,47,65,85,105,103,96,81,62,32,27,28,0
6,-5,-2,-2,0,0,2,-4,1,-5,-6,-4,-11,6,-9,1,3
-54,-31,-15,6,30,55,56,41,24,4,-11,-21,-26,-44,-58,-54,0
-1,5,-1,-8,-4,5,-5,-1,-19,4,-1,-5,-13,0,-4,-3,2
-12,11,10,15,11,3,13,-2,-2,5,6,9,0,13,4,0,1
-2,-7,-26,12,1,-22,-14,12,16,-23,-42,26,10,-33,-21,20,1
-34,-15,8,40,79,124,179,200,173,102,14,-68,-123,-138,-131,-102,0
3,-8,5,-1,5,-2,0,-3,8,-3,3,1,4,2,-1,4,2
12,7,-8,-15,17,-1,-19,-2,14,6,5,-18,16,3,-8,-2,1
-8,-5,-4,5,-2,-10,4,-3,-10,-8,-7,12,-7,-5,-1,1,3
-3,-8,5,-17,-4,-1,-19,1,6,-6,6,-13,-2,-7,2,-1,1
44,81,101,89,70,61,46,40,37,40,47,52,63,67,90,112,0
-6,-3,2,5,-8,2,4,2,7,2,1,2,-3,12,-3,4,2
-9,-11,-5,22,55,86,96,78,50,20,-21,-53,-61,-59,-39,-21,0
-160,-127,-77,-32,0,14,31,41,53,51,23,-1,-32,-52,-79,-92,0
-1,-7,-5,-5,-7,-2,-5,-2,3,2,-9,8,2,8,-9,3,3
-8,12,5,-26,-6,-6,-9,4,2,4,4,-9,-7,5,11,-8,1
9,11,-3,-17,8,2,-7,-2,5,22,10,-14,-5,16,8,4,3
-66,-70,-77,-77,-71,-66,-59,-69,-88,-97,-98,-103,-105,-104,-107,-108,0
-143,-123,-117,-105,-56,-20,-14,-24,-39,-57,-58,-56,-92,-110,-81,-32,0
1,-2,8,-6,-10,11,3,-2,-6,-3,2,2,-7,0,5,-2,2
21,48,62,37,-10,-59,-99,-133,-152,-155,-143,-128,-117,-105,-95,-79,0
1,-4,1,20,14,-14,7,11,1,1,4,5,-9,9,4,5,3
-28,0,-13,2,36,73,70,67,92,64,15,-32,-31,-31,-13,30,0
7,8,0,-1,-20,19,-5,21,-1,5,-7,-8,-7,3,-10,3,3
5,-10,-4,-13,8,-8,-11,-12,-3,0,-3,-9,-8,1,-7,-1,3
7,3,3,-13,2,1,-4,0,5,7,0,-8,-2,12,-4,-3,3
5,23,36,45,41,15,7,13,10,0,-9,-18,-46,-69,-83,-97,0
28,40,40,35,28,13,8,12,23,26,28,30,20,16,11,17,0
37,16,-1,-12,29,14,-4,-1,29,13,7,-20,31,13,-9,-6,1
12,-3,3,-35,-5,5,-22,-1,11,-13,-8,-8,-8,-4,-2,-4,1
21,1,-5,-14,9,5,-6,-5,-11,4,18,9,6,0,11,2,1
-10,-1,4,-2,-15,5,1,-1,-10,-7,-4,-3,-15,-3,-3,-2,2
-2,-3,-2,-13,-12,-1,-7,0,-14,3,0,-12,-10,-5,-7,-2,2
-5,6,4,-11,-25,12,8,-2,-13,3,20,-17,-26,11,10,-3,3
22,-1,-8,10,22,37,28,10,-13,-22,-18,-10,10,17,16,14,0
-7,-12,-4,8,6,-17,1,-5,-5,-6,6,22,2,-6,14,6,3
-3,4,1,9,9,4,5,-7,2,-10,-4,4,10,-14,0,-3,2
-5,17,25,25,17,-5,-24,-29,-55,-77,-62,-51,-26,22,77,88,0
3,7,3,2,6,2,6,1,-9,17,8,-3,-4,10,7,-1,2
10,-5,-5,-10,8,-11,-3,-4,27,14,-6,-14,-2,30,8,-15,1
14,-3,11,-9,-10,7,20,-4,18,1,-6,-13,1,9,-8,-2,1
0,-1,-4,-3,-4,2,-4,-2,-5,1,4,-13,-3,-7,-4,2,3
-60,-58,-49,-32,-11,4,32,58,84,95,84,55,15,-2,-16,-33,0
11,-9,6,-2,11,2,0,-8,18,-2,-2,8,12,6,1,3,2
-47,-7,21,41,64,70,39,-16,-74,-122,-161,-177,-160,-135,-94,-66,0
-35,-54,-53,-46,-56,-61,-56,-36,-4,37,75,88,85,74,61,51,0
-2,1,1,-3,17,-15,-4,-2,0,4,2,0,19,-7,-4,-3,3
-6,-8,4,-14,-5,0,-21,2,4,-8,8,-13,-3,-7,2,-1,1
-64,-96,-101,-72,-30,-3,-1,-19,-32,-56,-45,-41,-46,-70,-58,-47,0
16,-4,0,-13,4,0,-3,-1,6,12,-5,-30,-7,10,-12,-7,1
0,1,2,-3,7,-6,-2,1,-1,10,4,-7,6,9,-7,-2,3
8,6,6,5,19,2,2,3,12,9,5,8,25,-4,8,4,2
10,54,89,90,73,44,5,-41,-93,-144,-195,-216,-217,-184,-147,-99,0
-40,-29,-27,-44,-53,-29,-27,-38,-27,7,16,-3,-19,-26,-54,-64,0
-34,-79,-92,-77,-34,15,68,94,123,153,168,168,149,102,18,-79,0
-1,-8,-12,3,13,-15,-3,-13,-2,2,-10,10,-6,6,-1,-1,2
9,-4,-3,8,13,-3,0,1,13,-3,-4,17,18,-11,10,7,2
-84,-61,-29,-1,1,-2,-14,-15,-19,-16,-14,-15,-25,-33,-40,-56,0
-15,-26,-33,-36,-32,-33,-29,-28,-41,-52,-54,-48,-43,-41,-39,-44,0
-4,15,11,8,-17,18,9,20,0,-7,9,-13,-1,-11,4,-2,3
-10,16,2,11,-5,8,5,12,-14,30,8,12,-7,14,17,11,3
0,-5,-7,-1,-3,-9,-3,3,-5,-2,-3,1,-8,-1,-1,0,3
-1,-7,4,2,13,-18,-3,5,-4,4,5,-7,-1,4,-1,-4,2
-23,-3,-5,-14,-34,1,-3,-9,-30,-4,-1,-8,-29,-7,-6,-1,2
13,-9,-1,3,8,-5,2,1,4,2,-12,3,-7,-1,5,1,1
-5,13,15,19,-10,18,14,20,3,-6,11,-5,8,-10,5,1,3
-18,-12,-11,-14,-18,-2,17,43,55,32,-18,-78,-98,-80,-33,25,0
-6,10,7,12,-8,9,7,16,-2,10,0,0,-1,9,-4,3,3
26,41,45,-39,21,30,48,-25,16,32,54,-37,11,37,28,-11,1
-2,2,1,3,6,-2,1,1,-4,5,3,6,0,4,3,2,2
-7,-4,-3,-3,-2,-5,-8,-2,-10,-2,-5,-6,-1,-11,-6,-4,2
0,-1,-2,-6,-11,1,0,1,-2,12,1,-2,-4,8,0,5,2
10,62,108,126,123,96,50,-13,-79,-123,-156,-168,-172,-160,-146,-112,0
6,1,-1,-8,9,-3,-8,1,2,6,2,-9,6,10,-7,-9,3
8,4,3,-11,5,1,-4,2,3,10,1,-6,-1,14,-3,-3,3
1,-3,-6,8,3,-2,-14,13,11,0,18,-17,3,14,8,-12,1
7,14,16,11,27,5,11,4,20,9,1,6,37,-6,5,1,3
-9,3,8,-10,-9,10,-7,-2,-8,-3,1,4,-17,1,3,7,3
5,10,9,-35,-3,3,-6,-5,2,20,8,-43,-2,15,-15,-11,1
-1,-10,-4,-8,-9,-8,-9,3,-9,12,2,-18,-6,3,-5,-6,1
-3,2,9,-12,-7,13,-2,-7,-12,15,7,-23,-3,0,-1,-9,1
5,6,-10,27,22,-14,13,8,8,3,-10,7,13,-2,-6,3,3
-81,-99,-127,-155,-146,-105,-38,-1,44,62,34,-5,-34,-46,-56,-24,0
9,-3,3,1,10,-4,6,-3,-2,-3,4,6,3,-11,9,5,2
3,7,0,-4,1,5,0,0,10,-10,4,-1,5,2,0,-4,2
11,-9,6,-2,11,3,0,-7,16,-2,-3,8,13,3,1,3,2
7,17,9,20,18,1,13,21,15,18,1,1,30,6,7,-8,3
28,44,57,69,71,68,70,73,71,74,100,121,132,124,106,84,0
0,6,-8,1,1,4,-3,-3,2,3,-1,-17,-5,5,-6,-6,3
30,22,16,1,-12,-23,-31,-29,-19,-5,1,4,5,-1,1,5,0
0,16,-3,-11,-10,12,2,-3,1,3,1,-10,-10,1,2,2,1
22,-6,3,-2,12,0,-4,8,16,4,25,-16,6,25,12,-15,1
15,-12,-2,-10,5,-4,-10,1,8,-5,-7,-9,5,-3,-17,2,1
16,0,3,-39,-1,7,-22,-4,11,-17,-7,-17,-12,-6,-8,-4,1
-2,-1,8,11,2,4,7,5,4,-7,9,6,12,-6,2,3,2
-60,-53,-35,-6,14,21,30,54,75,81,70,34,1,-16,-22,-44,0
0,11,8,-1,-2,8,10,2,9,6,14,-10,2,13,8,-4,1
8,-12,0,9,-2,-4,9,2,30,-6,-17,-1,13,7,-9,-5,1
2,-9,1,0,4,-4,1,-9,9,-8,-4,-1,9,-13,-1,1,2
49,51,27,-7,-21,-23,-23,-22,-33,-55,-56,-38,-18,-2,0,-1,0
1,-15,-25,15,-9,-20,-12,16,19,-6,-22,7,9,-9,3,-4,1
7,9,-2,11,2,18,22,-16,4,11,-8,5,5,10,-3,-2,1
1,16,-2,-22,-15,16,-25,18,-5,3,-6,-8,-4,1,-15,2,1
4,-2,4,2,8,2,0,-3,2,4,7,4,6,0,10,2,3
8,6,7,-1,12,-2,5,5,8,11,4,-11,4,3,5,0,1
18,31,0,3,13,1,31,6,10,-1,26,-12,-7,9,18,4,1
2,9,6,7,2,7,11,4,8,17,11,13,12,15,14,10,3
16,-5,4,-1,18,-6,2,0,25,2,2,6,30,4,2,-1,2
7,10,16,25,43,50,56,48,22,-26,-65,-82,-82,-58,-26,-5,0
-7,-4,5,-4,-17,-4,7,4,2,9,-2,-32,-15,-2,2,-7,1
1,-4,0,12,12,-11,1,7,19,-12,-2,6,-2,7,1,5,2
-7,-8,-5,0,-7,-5,-13,4,5,-16,-25,3,-11,-6,-22,6,1
7,-6,11,6,11,7,9,-10,-1,20,12,4,6,20,17,-8,1
-84,-22,39,84,98,97,75,62,45,26,12,-10,-38,-67,-87,-100,0
3,16,8,10,-29,28,5,33,6,12,-1,-11,-1,13,-7,0,3
8,-6,-6,-5,11,-9,-7,-4,3,2,-1,-6,3,0,0,-6,2
-1,-10,9,0,-11,7,5,-3,20,23,-3,-22,2,13,19,-15,1
0,-2,1,3,-2,-2,-6,11,-5,-2,1,4,1,0,-4,0,3
-17,3,-4,-13,-9,-11,-13,2,11,-17,-17,-9,6,-17,-24,4,1
-30,-16,-8,3,-18,-2,-26,-5,-21,-3,-6,6,-11,-8,6,-11,1
-5,10,-4,5,-4,6,3,1,0,-3,3,4,10,-5,1,-2,2
12,10,1,27,18,3,9,20,15,-11,-2,21,23,-9,7,2,3
31,18,29,-53,16,-2,21,-10,30,10,50,-66,-6,23,24,-17,1
-34,-9,-6,19,13,-17,18,-45,-30,-21,-4,50,3,-17,18,-10,3
6,2,-11,-12,-4,-4,-9,3,2,4,-2,-7,-1,4,-2,-4,1
28,3,5,11,35,2,12,-2,35,23,8,6,41,20,13,-2,1
-9,-14,7,-9,-5,-10,-6,-4,-11,-12,-6,-1,0,-16,-3,-10,3
1,3,-18,4,-5,4,-10,-1,-14,-10,1,5,-5,-5,-7,0,1
-93,-102,-88,-58,-30,-21,-26,-34,-53,-77,-106,-124,-128,-114,-88,-69,0
-38,-28,-23,-25,-23,-25,-32,-36,-35,-42,-54,-58,-62,-69,-82,-99,0
-74,-58,-33,-2,16,32,38,25,-1,-36,-52,-68,-77,-83,-96,-102,0
7,18,14,-14,19,5,1,-1,2,16,18,-16,13,5,6,-4,1
1,-4,1,-6,-3,-2,-7,3,0,-9,-1,-8,-4,-2,-14,2,3
4,5,-5,10,7,2,0,5,6,1,1,5,9,8,-4,0,3
-1,1,-2,6,-1,1,2,3,-7,16,-1,6,0,14,-2,-1,2
-17,-11,-24,13,-30,-13,-10,14,-18,-27,-35,30,-30,-24,-9,14,1
-4,4,-7,-9,-12,1,-8,4,-5,-3,-6,-5,-9,-7,-3,0,2
9,48,18,-53,-1,36,1,-14,-3,17,33,-50,-6,24,7,-28,1
-7,-4,-4,20,14,-18,3,5,3,-2,-3,7,-4,8,2,-1,3
7,9,-11,-1,26,-5,-10,-9,7,2,4,-8,21,1,-11,-7,3
-2,4,6,-4,-8,13,7,-8,-5,-1,3,5,-8,1,4,4,2
-4,-7,-5,2,-8,-12,-7,14,-6,0,-3,-6,-13,-4,2,0,3
39,74,86,64,12,-54,-116,-150,-171,-178,-156,-120,-93,-84,-93,-97,0
3,-5,-4,0,9,-8,-5,-1,-10,-7,-16,6,-14,-14,-8,8,1
-30,-42,-51,-35,-53,-58,-67,-74,-78,-89,-95,-91,-57,-29,-8,-14,0
-3,0,7,20,8,-1,16,1,13,-7,1,22,32,-2,5,-6,3
-2,-1,-9,5,0,-3,-3,-1,-5,-2,-5,-5,-7,-3,-5,-1,3
-3,-5,-28,13,-10,-11,-8,6,6,-8,-26,13,-2,-8,-11,5,1
-6,5,-3,8,3,-3,0,4,-1,6,-2,8,9,-7,3,6,2
27,5,1,-3,35,0,-4,-1,71,-7,0,16,51,19,0,11,2
-2,5,6,-15,-9,10,-5,-2,-2,12,-2,-16,-5,-2,-5,3,3
11,-1,-2,-5,7,3,-8,1,-5,9,-1,-6,3,3,-10,1,1
-3,2,-4,-6,-11,-2,-1,2,-13,2,-3,-13,-3,-13,-8,-3,2
-9,4,5,0,1,-2,4,-3,9,10,9,6,13,10,8,4,1
2,-1,0,9,9,-1,10,-8,2,1,-1,1,10,-2,-8,3,3
-79,-1,68,81,39,25,-30,-30,-106,-145,-167,-142,-115,-94,-60,10,0
-8,-12,-24,14,-7,-14,-12,2,-2,-26,-29,25,-7,-26,-12,14,1
8,8,-5,6,17,0,6,-5,6,3,-1,4,7,-5,4,6,3
-4,-7,1,-4,-6,8,-5,-10,-14,-2,4,13,-4,-3,10,-3,3
-16,-19,5,-1,-15,-10,-7,2,18,-13,-26,-2,5,-11,-19,3,1
9,3,3,-5,-7,14,1,2,10,-1,-1,-3,3,4,-4,3,3
1,-8,-5,-11,14,-14,-8,-14,4,-9,-7,2,2,-7,-2,-2,2
11,21,18,0,-17,-21,-12,17,44,56,51,33,11,-13,-21,-18,0
6,9,3,-6,5,7,7,-7,-3,3,-5,2,6,-1,-7,0,1
-4,-2,6,16,6,-3,13,0,12,-11,0,22,28,-4,3,-4,3
-17,-2,7,-3,-17,-11,5,7,-17,7,24,-31,-14,6,-3,-6,1
-2,3,6,1,-3,8,3,1,1,1,8,7,2,4,2,8,2
14,4,-7,-1,21,2,-6,-7,1,7,-2,1,13,5,-5,-6,1
-16,8,37,36,11,-15,-39,-46,-44,-22,-4,-6,-25,-45,-61,-61,0
0,-2,-4,-3,-4,2,-2,-4,-3,1,4,-14,-3,-6,-6,3,3
48,14,-6,15,55,7,2,7,45,17,-1,28,56,11,8,14,1
-47,-39,-27,11,59,132,215,271,280,251,196,122,27,-76,-177,-217,0
-61,-78,-99,-94,-74,-58,-74,-62,-40,-33,-40,-69,-79,-78,-65,-70,0
8,5,-8,8,-4,10,0,7,9,-2,-7,19,13,-5,8,3,3
-22,-24,-23,2,37,30,19,11,22,40,86,105,98,87,90,74,0
-9,-16,-23,-39,-41,-40,-33,-21,-5,12,19,35,28,13,-16,-29,0
-18,-43,-66,-87,-94,-86,-80,-63,-34,0,39,77,105,106,90,54,0
10,8,4,-9,17,-3,2,-4,41,9,2,-7,29,20,3,-6,1
56,20,1,1,8,17,19,15,17,32,39,63,83,104,116,121,0
-5,40,69,82,97,111,126,104,52,-23,-102,-146,-159,-141,-111,-52,0
9,1,-5,-21,-2,-4,-11,-1,4,-1,-7,-1,1,2,-15,7,1
34,-3,-21,-5,24,-3,-19,4,15,0,-7,-7,9,5,-10,-3,1
0,-3,1,2,1,11,-3,-9,-14,6,5,11,3,-2,11,-5,3
-31,19,15,-30,-35,14,8,-15,-23,5,16,-44,-28,1,-16,-3,1
4,-5,1,-12,-15,0,9,-6,15,-8,4,-22,-9,6,-4,-4,1
-4,10,5,-17,-25,15,7,-2,-11,10,13,-20,-19,11,2,-2,3
-3,3,-5,-11,-6,2,-4,-8,-3,0,0,-13,-2,-2,-9,-2,3
1,-1,4,-2,11,-5,-1,-3,2,6,-2,-5,-15,10,8,-3,2
-6,4,6,-6,-14,6,6,1,-2,-2,6,-2,-9,7,5,-2,2
-11,11,3,-12,-5,9,-4,-10,-10,12,2,-2,-14,14,5,-1,2
-1,-4,7,-13,-4,-6,-4,4,3,2,5,-11,5,-2,-4,-1,3
16,-8,-8,-22,-3,-3,-11,-5,3,-12,-4,-9,-9,-1,-21,9,1
-15,-1,-4,-11,-10,-12,-12,4,12,-20,-17,-6,4,-16,-23,5,1
20,4,6,-5,11,22,4,-12,7,16,6,-24,8,4,-14,6,1
16,9,-3,-5,23,5,-6,-5,6,7,-2,-3,9,7,-6,-3,1
-20,-29,-18,9,49,85,94,93,79,56,30,7,-14,-37,-57,-67,0
2,-5,7,-10,-6,-3,6,-3,10,7,2,-12,3,7,-6,2,1
-5,1,-3,-3,-6,3,-5,-1,-15,5,-1,-9,-15,-2,-2,-2,2
16,-2,10,-30,13,10,-14,-15,24,37,21,-39,30,13,-6,6,3
-4,5,6,8,15,0,10,-9,-2,7,14,1,-10,18,11,1,3
-12,7,27,48,54,58,56,50,47,38,14,-22,-35,-29,-6,14,0
7,-5,-3,1,2,-9,10,-3,11,8,2,1,9,6,8,-2,3
30,6,0,6,24,10,4,3,21,2,8,-2,32,-5,16,-14,1
5,-11,-11,32,6,-11,8,11,8,-25,-10,28,20,-20,6,-4,3
-1,7,0,-8,4,0,-3,-3,-4,-2,-13,1,-14,1,-10,6,2
34,42,40,18,-7,-41,-80,-128,-156,-168,-167,-154,-135,-119,-109,-99,0
-42,-46,-28,1,27,36,28,12,0,6,34,70,91,72,34,-20,0
133,67,-10,-76,-123,-138,-127,-96,-65,-30,-23,-30,-43,-61,-90,-108,0
4,8,7,12,4,6,11,9,5,3,5,8,13,8,3,-3,3
-5,-9,3,1,-9,-2,-1,2,-23,8,5,-6,-17,3,0,-2,2
26,6,14,-20,33,3,-7,-3,17,-3,1,-4,33,-19,-10,8,1
20,5,22,1,22,13,17,-5,21,4,3,13,29,6,5,1,1
2,-13,-21,16,-2,-7,-29,22,9,1,-11,11,27,6,-11,-12,1
-1,9,-1,8,5,10,2,-4,5,17,-3,12,23,3,2,2,1
-5,6,10,17,-20,21,16,12,-9,11,11,13,-16,15,21,6,3
2,4,-2,-7,-8,1,5,-1,3,-1,4,-5,-5,6,4,-2,2
-10,-29,-58,-86,-90,-81,-61,-25,18,27,5,-1,11,38,85,102,0
40,-2,-49,-109,-150,-165,-127,-74,-17,31,76,116,146,178,191,174,0
-1,-1,5,19,-1,3,11,11,-4,7,3,22,0,13,15,0,3
43,55,80,90,88,78,69,61,52,44,30,17,9,9,4,6,0
0,-4,1,20,15,-16,7,12,0,1,5,5,-7,10,3,5,3
3,-1,3,-6,-7,3,6,-2,1,-1,6,2,-7,12,-1,2,2
5,-5,-1,-8,-2,-3,-9,5,-16,6,3,1,-3,-3,2,-2,2
-76,-83,-92,-100,-89,-83,-85,-83,-81,-83,-99,-105,-114,-116,-111,-99,0
133,130,90,32,-4,-24,-34,-46,-63,-79,-72,-46,-24,-1,29,62,0
-1,6,-1,-2,-6,11,2,-5,5,9,-10,-9,-9,19,-13,-2,1
5,0,-2,-6,7,-1,-6,-4,3,0,5,-11,3,-4,-3,0,3
0,-5,-5,-10,-2,-13,-4,-2,-9,-11,-9,-7,-13,-16,-7,-1,2
16,4,4,9,27,-1,2,6,19,1,2,8,21,3,4,2,2
1,2,1,4,14,-4,1,-3,3,6,-4,4,4,8,-2,-1,2
10,14,0,-16,3,2,6,-3,18,-2,5,-12,10,10,-10,-2,1
24,31,45,67,73,66,50,43,45,55,59,60,53,38,33,21,0
-2,4,6,-4,-9,10,4,-1,-2,0,-1,-4,0,0,-10,4,3
-2,-3,0,-1,-2,-3,-1,1,5,-6,-1,6,7,-2,-4,4,2
51,-6,-10,27,49,24,6,-17,28,-13,-5,29,23,8,11,-3,1
9,-17,3,-9,-1,-9,-5,1,2,7,-7,-27,-7,3,-20,0,1
-15,2,2,3,-14,4,1,2,-12,-1,0,-1,-11,1,-2,-3,2
-11,10,6,-5,-5,-2,10,-2,-8,1,18,-13,-12,5,4,1,1
8,21,11,2,-13,24,4,26,8,33,13,-24,4,21,-3,8,3
-8,-5,0,-6,-7,-8,-3,0,4,11,-1,-13,5,6,-5,-5,1
-23,-13,5,14,-20,-9,1,11,-22,5,21,-24,-19,6,0,-8,1
3,-2,-4,-15,0,-3,-11,-3,-3,1,0,-11,-6,6,-7,-6,1
-5,2,4,5,3,2,3,-1,-5,7,8,-3,-4,9,5,-4,2
-1,-2,3,-4,1,-2,-3,0,-5,6,0,-1,4,-1,-2,-2,2
-7,15,-1,-1,-6,6,7,-1,12,-3,4,-3,-3,12,0,2,2
33,36,26,-9,-17,-32,-35,-19,17,39,82,65,33,29,39,71,0
29,5,4,0,30,4,5,0,25,-3,5,7,23,10,-2,5,2
3,-7,-4,-7,-4,0,-4,-6,-5,-3,-1,-15,-16,-1,-7,0,2
3,4,3,9,-1,0,5,14,9,0,4,10,17,9,4,-6,3
-22,0,0,-5,-23,3,1,-7,-30,-4,-3,-7,-39,2,-6,0,2
6,2,-4,-2,-2,7,-1,-1,-2,-3,-1,3,-7,0,4,1,2
-5,-1,-3,-8,-6,-3,-4,-4,-9,5,3,-5,5,-11,3,-3,2
13,26,4,18,24,31,13,-7,-6,12,0,8,-5,5,5,9,1
1,0,-1,-4,0,0,-3,-1,-5,7,-3,-4,-6,3,2,-3,2
-13,-5,1,-6,-16,-1,-5,-2,-14,6,0,-12,-12,-2,-5,-2,2
19,1,4,-39,2,9,-20,-6,11,-17,-6,-19,-11,-5,-9,-4,1
1,1,9,-4,-3,5,7,-1,-2,7,5,-3,-9,20,0,-3,2
17,8,-1,-13,-26,-37,-32,-31,-30,-55,-81,-102,-114,-107,-78,-22,0
-7,-18,-10,8,4,-13,3,-22,-1,-31,-15,16,6,-24,-4,-9,3
8,2,-11,12,24,-5,1,-9,-10,-5,-2,34,7,-13,10,13,3
-117,-88,-62,-42,9,46,29,-23,-43,-29,-35,-26,-21,2,19,56,0
-7,7,-5,-18,-7,-2,-12,-3,-14,-4,-3,-6,-24,-2,1,-2,2
-127,-85,-88,-74,-46,-48,-45,-33,-31,13,53,56,54,87,81,38,0
-19,3,19,26,23,21,23,33,55,64,52,22,-12,-40,-58,-57,0
23,-7,6,-7,-7,28,7,-12,7,1,9,-14,-3,16,13,-24,1
-4,1,-7,1,6,-9,-6,0,-11,-6,-1,3,-8,-2,-7,2,2
-1,-5,-10,3,5,-17,-5,3,-4,-11,-19,11,-3,-14,-13,6,1
8,11,19,-15,5,14,1,3,6,14,6,-13,6,3,3,1,3
16,-5,1,-10,10,-4,-9,3,-5,18,9,-19,-4,11,-2,-2,1
-2,7,3,-8,2,5,-1,-5,-1,15,-17,-5,-5,2,-15,10,1
4,1,6,1,4,1,5,2,3,15,9,-10,6,9,3,-2,3
7,13,10,2,15,6,1,10,-19,13,11,4,-9,9,5,5,3
-22,-9,0,-1,-12,-40,-65,-84,-90,-84,-65,-42,-30,-14,-4,-2,0
-117,-89,-52,-21,0,10,22,49,75,92,91,68,23,-18,-60,-91,0
1,-8,1,-1,-4,-3,-7,8,-1,-3,3,1,2,2,0,-4,3
24,8,5,5,29,7,4,1,42,13,14,6,42,20,14,-2,1
6,5,-1,0,8,3,-1,1,5,1,-3,4,14,2,-6,-2,3
-1,-2,-1,-6,-6,2,2,-8,-6,2,-3,-1,-6,-3,-1,2,3
-48,4,44,78,100,107,105,89,40,-25,-50,-42,-31,-29,-16,-7,0
93,123,131,133,116,98,95,88,79,78,72,70,75,58,19,-14,0
-8,-16,-1,12,-9,-4,5,-6,12,-8,-36,17,-4,-21,-6,16,1
5,3,-6,-8,16,-1,-9,-11,2,-12,-1,-2,5,-12,-8,1,3
-6,8,1,3,-1,6,4,-3,-7,12,1,-3,-2,2,4,0,2
-3,-7,-6,7,1,-3,6,-11,-6,0,-2,4,-4,-6,5,1,3
0,22,17,-2,22,3,3,9,2,-8,27,4,11,6,18,-9,1
13,5,-2,-34,5,4,-21,-5,6,-11,18,-34,-11,2,-9,-2,1
8,5,2,1,7,4,-3,8,4,-2,-9,-1,6,-7,-6,0,3
-47,-65,-95,-94,-68,-34,-6,32,71,71,51,43,26,-17,-38,-29,0
-17,-27,-38,-29,-16,-2,27,43,33,6,-8,-17,-19,-15,13,12,0
1,-4,3,-5,-15,11,2,-3,-1,0,-2,-10,-9,1,6,-11,2
-33,14,57,92,107,105,92,84,61,49,24,-8,-44,-77,-76,-70,0
24,17,23,26,20,3,-7,-24,-48,-83,-113,-129,-128,-103,-75,-39,0
7,1,-12,-6,-7,1,-10,5,0,5,3,-4,2,2,5,-4,1
-1,-1,2,15,-9,2,11,12,1,-5,-2,16,4,0,4,3,3
-54,-22,10,29,19,0,-13,-34,-42,-53,-66,-76,-79,-76,-77,-62,0
-30,-66,-95,-126,-160,-180,-201,-212,-199,-150,-81,-14,43,52,26,-15,0
3,2,-1,-6,-5,10,-5,-2,-10,0,7,-2,-13,-1,7,3,2
17,-2,-10,-2,11,-5,-9,5,21,-1,-12,-1,11,7,-10,-1,1
-2,-2,-1,-5,-7,-2,0,-1,-4,5,3,-6,-4,-2,3,1,3
-3,11,-4,1,-2,8,-2,1,-3,3,3,-4,6,-10,3,-1,2
-1,-4,-1,19,15,-18,6,11,-2,3,6,3,-6,8,4,4,3
0,33,80,111,111,83,43,10,-6,-8,-7,2,19,45,54,48,0
22,-12,8,5,22,18,-4,-14,9,-4,-16,5,11,-8,-13,4,1
-3,14,2,14,0,7,14,6,0,2,2,10,12,-5,8,-1,2
2,3,1,1,4,-2,3,1,-7,14,7,-5,-4,9,6,-1,2
-73,-51,-47,-62,-78,-91,-132,-168,-171,-159,-137,-100,-86,-123,-160,-170,0
-8,-9,-1,2,-15,-40,-60,-67,-48,-16,8,10,14,23,11,-3,0
11,45,13,-57,-6,35,-9,-9,-7,18,23,-43,-13,22,2,-21,1
13,1,1,-25,-3,6,-9,-4,11,-3,13,-28,-10,9,-1,-5,1
-1,-1,-15,-23,-34,-34,-41,-42,-33,-41,-47,-50,-47,-53,-62,-69,0
10,-5,-2,1,9,-3,-4,0,15,-6,-5,0,11,0,-5,-3,2
5,8,2,-5,11,-5,5,-2,3,7,6,-8,12,-4,-2,1,1
-2,-1,-3,16,19,-18,3,6,-1,6,2,2,-3,11,-1,2,3
-23,-27,-41,-46,-39,-28,-18,-14,-2,5,18,28,31,27,29,35,0
-1,-3,3,-7,3,1,1,-12,-2,-4,6,-4,-4,-2,2,0,3
-2,8,4,4,1,4,9,0,5,4,-5,2,2,10,-2,-4,3
-2,-1,7,7,4,-3,8,2,5,-3,-1,6,14,-7,3,-3,2
9,3,-4,0,14,0,0,-6,4,-4,0,3,14,-16,3,1,2
-23,-12,-8,18,-8,-18,-9,9,-4,-7,-18,9,5,-8,-20,3,1
2,3,1,3,-6,7,2,7,4,1,-3,-2,2,1,0,-2,2
-4,-1,-1,5,-3,2,-3,3,-19,7,1,5,-7,-4,6,1,2
-73,-76,-63,-28,3,-15,-33,-32,-24,-30,-44,-56,-39,-40,-68,-80,0
-5,7,8,18,18,8,13,-10,-7,6,11,20,-7,20,16,1,3
-5,0,10,-26,-11,10,-13,-7,-11,5,7,-5,-25,12,4,5,3
1,-2,15,12,9,-4,21,0,-5,16,40,5,-6,37,46,-20,1
-10,-9,7,2,-38,2,3,23,-4,-16,-2,-21,-39,12,-10,-7,3
7,-5,-1,2,9,-3,1,-3,-1,-2,0,6,5,-8,3,3,2
-4,5,-2,4,-12,7,3,6,6,7,-1,2,5,12,-5,2,2
69,37,-2,-27,-42,-41,-25,-2,15,42,62,53,28,12,-9,-30,0
38,21,-3,-14,30,16,-3,0,30,13,14,-26,31,18,-11,-8,1
-1,9,-1,-9,4,-1,-4,-2,-3,-1,-11,-2,-12,1,-10,4,2
46,-5,-9,32,41,25,11,-14,19,-12,-7,46,26,-6,21,5,1
4,11,0,2,7,2,-5,12,-2,13,4,-5,6,7,1,-2,3
-20,24,8,18,-10,6,3,30,-5,-16,-13,8,-8,-17,-5,3,3
-5,-1,-5,13,-1,-1,9,-5,8,-11,0,-6,-1,9,-13,-4,1
-121,-102,-79,-57,-29,-1,18,20,24,15,3,1,-4,-12,-34,-41,0
-3,1,-5,-12,-17,2,-6,2,-9,6,-5,-10,-20,6,-2,-2,2
1,4,9,8,2,4,2,14,1,11,6,9,-1,19,5,4,3
8,3,0,-7,6,5,-8,0,-3,5,-1,-3,5,2,-10,1,1
3,-4,4,5,9,-6,2,2,17,3,-2,-3,18,1,-2,-3,2
0,7,-1,-6,-5,11,1,-6,5,8,-11,-9,-10,20,-14,-3,1
-4,7,8,-32,-4,-13,-3,1,-7,-4,-9,11,-9,-5,-2,6,1
3,9,8,11,7,13,9,1,17,-6,2,13,11,4,7,4,2
-29,-39,-58,-68,-61,-54,-35,-39,-29,-63,-87,-101,-102,-120,-103,-94,0
-1,1,0,-3,-7,3,-2,2,3,-9,-4,-11,-12,-4,-4,-1,2
-3,9,0,9,11,-2,3,3,-7,-1,1,8,3,-7,5,2,2
-16,-3,-7,16,-9,-6,3,2,-22,17,7,17,-12,10,16,6,3
-134,-148,-145,-117,-76,-38,-10,17,35,51,60,61,42,9,-13,-35,0
30,22,8,6,8,7,8,-1,-15,-34,-41,-28,-15,-10,-6,-1,0
-21,-8,5,9,-21,-5,2,8,-23,9,30,-36,-18,10,2,-13,1
-31,1,-2,-12,-36,-1,-1,-7,-36,-14,0,-5,-40,-14,-1,0,2
-139,-121,-79,-24,41,105,152,169,149,118,58,-20,-107,-175,-210,-206,0
4,-5,-2,9,10,-6,4,-2,4,-2,-6,-3,-4,1,-3,-1,2
5,-1,-1,-3,13,-7,-5,-1,5,1,3,-1,7,1,4,-5,2
-3,-5,-2,-6,9,-13,-2,-9,-3,-6,-3,-2,-1,-6,-10,3,2
6,-3,6,3,10,-3,7,-3,-7,1,1,4,-2,4,-3,0,2
34,12,-6,5,39,6,0,1,22,5,-3,6,17,8,-1,6,1
83,94,102,89,76,61,55,50,60,58,56,56,63,74,68,72,0
-7,-17,-10,6,3,-11,2,-21,-2,-29,-14,15,4,-23,-4,-7,3
101,149,172,161,120,44,-30,-95,-159,-205,-229,-237,-209,-142,-74,-26,0
6,16,0,4,31,1,1,-7,12,25,5,-3,31,6,8,-5,3
22,25,25,16,13,9,5,0,-4,-7,-2,19,36,49,52,50,0
-9,-13,1,13,-14,4,-4,6,-6,-10,-17,14,-10,-1,-12,3,1
50,61,65,64,55,32,-3,-37,-52,-56,-41,-25,-16,-14,-5,21,0
8,-4,2,4,9,-4,7,-1,2,-4,5,7,3,-6,7,5,2
3,9,-8,-5,-6,6,0,0,4,4,-13,1,-8,4,-6,5,1
-8,-4,4,7,1,-7,9,-3,8,-14,-2,19,21,-8,0,-3,3
13,-5,-1,10,19,-6,6,-2,4,8,23,-5,21,15,5,-11,1
-9,23,4,6,-10,15,6,13,-20,17,10,12,-24,8,21,16,3
16,-6,-5,-18,-36,25,-5,2,-12,-1,1,-25,-41,12,-9,1,3
-3,-10,-5,6,-5,-4,-1,-1,7,-7,-2,-3,3,-3,-1,-4,2
7,17,9,-8,7,11,8,-1,1,20,15,-13,1,19,10,-7,1
-3,11,14,7,-25,30,10,15,-2,5,3,10,-10,11,10,5,3
3,-1,-8,4,-8,9,-4,2,-9,-2,-5,-2,-8,-4,-7,0,2
-7,-25,-58,-79,-111,-110,-86,-30,33,69,78,47,11,-8,-19,-27,0
-20,-82,-68,-101,-98,-36,-9,14,26,30,17,-24,-69,-117,-146,-142,0
117,116,94,47,-12,-67,-105,-137,-168,-152,-117,-71,-24,2,16,19,0
47,63,68,76,83,77,67,47,28,-9,-45,-78,-100,-106,-84,-45,0
34,3,-1,14,27,9,5,8,24,13,5,22,34,15,11,5,1
-82,-70,-40,5,38,58,64,83,91,66,42,20,10,10,33,49,0
-3,7,3,-2,-11,9,8,-1,3,6,3,-9,6,1,-1,-3,2
-1,-9,-7,3,13,-16,-1,-10,-1,0,-5,8,-5,9,4,-6,2
-5,12,-6,-20,-9,14,-8,-16,2,8,11,-29,-25,23,-1,-5,1
-29,-6,21,39,38,20,-1,6,3,26,38,25,-15,-62,-81,-82,0
-9,25,44,46,50,52,33,22,21,18,35,50,35,12,17,27,0
10,-3,-3,6,13,-2,-1,0,14,-5,-3,14,19,-10,7,6,2
-1,-6,1,14,8,-11,10,1,-5,6,-5,6,-12,3,9,3,3
-10,10,3,-9,-6,-4,5,-1,-7,2,21,-22,-11,6,1,-2,1
0,-14,-71,-92,-112,-79,-53,-37,-25,2,-6,-20,-60,-69,-74,-65,0
4,-6,-4,-11,1,-4,-5,-9,3,-10,-5,-11,-1,-13,-10,1,2
4,-12,-31,-37,-47,63,71,73,67,71,64,59,50,47,41,49,0
37,41,42,43,45,55,56,51,39,39,51,75,85,93,82,74,0
4,8,7,2,5,4,2,10,4,3,4,-1,10,-9,5,3,3
2,11,8,-1,2,7,10,2,11,4,14,-11,2,12,8,-5,1
2,17,12,-22,-1,8,-2,3,-5,24,8,-30,-9,9,-1,-3,1
3,10,-1,5,5,-1,5,9,10,9,-2,-1,19,-6,4,0,3
1,6,0,-2,1,1,-2,5,-4,13,19,14,-12,25,25,4,2
-50,-15,-1,8,1,-17,-29,-7,7,-36,-43,-42,-59,-89,-85,-35,0
-63,-26,5,24,27,34,34,38,40,40,31,-4,-35,-72,-100,-117,0
-81,-61,-32,1,33,54,54,55,76,96,99,75,41,7,1,15,0
1,0,-1,5,2,3,0,2,-3,-2,1,-2,4,-2,-7,0,3
-4,-3,-24,-61,-59,-16,5,46,59,63,39,15,4,-30,-68,-86,0
39,40,18,-5,-9,-31,-66,-66,-69,-66,-35,-6,37,104,162,160,0
0,33,50,75,103,103,86,72,61,30,5,-8,-23,-30,-20,-16,0
7,-12,-36,13,-6,-11,-15,4,18,-2,-25,9,12,-2,4,-14,1
-1,-7,-4,-3,-7,-2,-4,-2,3,2,-9,11,2,9,-7,3,3
-1,11,4,2,2,10,4,-1,-1,4,2,4,6,-3,3,4,2
0,2,5,-6,0,-5,7,-1,-5,1,0,-2,-9,9,-10,3,1
-4,-5,7,-8,2,-3,-4,-5,-9,-3,-1,-2,2,-9,-5,-4,3
8,1,0,-6,-13,14,-1,2,8,-2,-6,-6,3,4,-10,-4,3
1,-5,-2,13,-1,-3,2,10,-1,-3,-2,6,0,-5,2,3,3
-14,-27,-9,-10,-19,-14,-5,-23,-10,-30,-11,0,-7,-22,-7,-14,3
55,11,6,16,60,13,9,6,54,13,4,17,62,12,3,12,1
77,54,36,31,45,75,106,121,138,147,139,130,112,96,93,95,0
-1,-2,-2,-6,-5,2,2,-8,-6,2,-4,0,-6,-4,0,2,3
6,5,-4,3,5,9,-10,6,-9,-1,8,10,10,0,0,-2,1
22,4,14,3,19,6,27,-9,0,26,19,-5,-7,29,21,-3,1
4,-5,1,-12,-2,2,-9,-3,1,-4,-6,6,-4,-1,2,0,3
-82,-66,-40,-21,-9,-6,-18,-24,-14,3,20,39,52,59,58,50,0
14,17,-1,15,17,23,21,-15,6,-3,5,6,5,3,10,-5,1
-18,-14,2,-3,-17,-12,-7,5,19,-20,-25,-3,1,-14,-21,5,1
-6,-30,-47,-40,-47,-51,-31,-10,10,34,50,14,-14,-26,-36,-40,0
9,3,9,8,24,3,7,-5,7,11,7,7,4,12,12,4,3
37,21,-6,-22,37,11,-14,-4,11,16,-9,-2,17,-1,-9,7,1
3,-4,-3,-10,-1,-3,-9,0,3,-12,-7,-9,-7,-6,-10,-2,2
53,21,-2,-40,-63,-42,1,25,22,20,2,-17,-16,-9,-19,-51,0
-4,16,-3,6,-4,9,8,3,0,1,0,1,4,-8,3,3,2
-197,-238,-255,-245,-219,-186,-141,-98,-62,-18,32,87,111,119,101,52,0
-4,1,-8,-2,-14,5,2,-6,-8,-3,-2,-2,-4,-7,3,-5,2
0,7,-1,0,0,6,-6,7,-7,8,-4,-6,0,-3,-8,4,3
6,-3,1,-1,-4,10,1,-4,-3,3,2,-2,-6,12,-6,-2,2
-5,1,-8,-1,-13,4,3,-6,-8,-4,-1,-1,-4,-8,3,-5,2
0,3,1,3,-5,7,1,5,5,6,2,-1,6,15,-2,-8,1
-4,14,3,-14,2,3,-8,2,-1,-11,-4,2,-4,-5,-1,-3,1
-63,9,74,130,158,161,148,118,91,52,-1,-63,-109,-117,-87,-47,0
1,2,-2,-2,7,-2,-5,-2,9,-7,-4,8,-2,-1,7,3,2
14,-2,11,-13,-10,8,16,-5,13,2,-4,-20,-2,8,-12,-2,1
12,-8,-4,-3,5,0,-5,-3,2,8,1,-7,-3,7,2,-1,2
1,4,-2,2,3,4,-2,1,5,-8,2,3,1,-2,1,0,2
-3,-7,-1,-6,-9,-3,-3,-2,10,-16,1,2,0,-4,1,-2,2
-91,-65,-15,24,10,94,121,116,119,122,93,70,-3,-20,23,36,0
25,-2,-2,6,30,-9,-1,8,48,-2,-2,11,45,4,0,6,2
7,-28,-38,26,6,-14,-33,9,6,-8,-68,37,8,-20,-38,17,1
22,32,30,-1,-34,-54,-48,-40,-36,-25,-23,-43,-42,-38,-54,-67,0
-28,-36,-37,-44,-53,-55,-79,-92,-99,-89,-53,17,75,87,52,8,0
-74,-36,-27,-22,-44,-73,-92,-95,-116,-143,-157,-133,-102,-76,-19,39,0
6,15,2,1,-4,18,8,2,3,12,3,3,7,12,1,2,2
14,11,20,-14,15,9,14,-8,24,14,4,-40,13,7,-6,-13,1
6,-16,-11,-1,4,-11,-7,-7,-1,-6,-1,-8,2,0,-15,-3,2
11,-4,-16,6,12,-6,-11,4,9,0,9,-4,5,12,2,-6,1
6,-6,2,-3,2,-3,-1,1,-2,3,-3,-5,4,-8,-1,-3,2
-4,6,3,3,-4,9,4,0,-6,10,1,-5,-7,3,8,-3,2
1,1,-1,-6,5,-2,-6,-3,2,-1,3,-16,-1,-4,-6,0,3
-7,6,10,-10,-10,3,10,-5,-8,-6,-8,10,-9,-7,3,1,1
15,7,6,1,18,3,7,1,18,-5,1,0,8,4,-2,4,2
-1,0,2,12,-11,3,9,12,4,-6,-1,13,6,-2,2,4,3
-4,-4,-17,4,-8,-3,-13,4,7,-7,-21,13,-9,-5,1,5,1
24,-2,-4,11,16,8,1,6,17,17,9,18,27,18,13,2,1
-4,-5,-7,17,9,-2,-11,6,-1,11,-8,8,5,9,-3,-1,1
29,-9,-40,-58,-51,-37,-14,7,12,16,21,33,31,27,19,8,0
33,9,-14,-10,32,4,-4,-13,26,-12,-4,-10,13,1,-5,-8,1
3,-13,-5,0,4,-11,7,-16,5,-1,-2,3,0,-2,5,1,3
-10,4,23,42,67,85,86,75,71,69,64,53,32,7,-7,11,0
68,11,-3,-3,74,5,-6,1,56,30,5,8,76,12,6,6,1
33,54,70,46,-17,-102,-180,-237,-248,-221,-161,-83,-10,33,46,50,0
-7,5,-4,-7,-9,0,-5,0,-1,1,0,-6,-5,1,-4,2,2
27,-2,6,-7,16,2,1,5,15,4,27,-16,5,25,14,-14,1
-81,-24,40,91,103,103,84,52,-3,-65,-120,-171,-194,-193,-162,-102,0
7,1,-1,-6,-14,14,0,2,9,-4,-6,-7,5,4,-10,-6,3
12,24,30,32,42,50,39,36,27,15,-1,-12,-20,-36,-23,-7,0
-73,-97,-102,-76,-56,-27,-3,-9,-17,-8,1,-7,-11,-11,-20,-37,0
7,11,19,-15,5,14,2,2,5,14,7,-11,5,5,4,1,3
23,7,5,8,30,5,9,0,39,18,11,6,42,18,16,-3,1
-2,-2,-1,-4,-7,-2,-1,1,-2,5,3,-7,-3,-3,4,0,3
-5,-8,0,-6,-8,7,-6,-11,-13,-5,4,12,-5,-3,9,-4,3
1,-4,-2,-2,19,-14,0,-11,-2,-4,0,1,-1,-3,-1,0,2
-2,1,-5,-4,-9,-1,-2,2,-14,5,-2,-10,-4,-12,-3,-2,2
-17,2,-5,3,-2,-13,-2,-1,1,-5,-3,-5,7,-5,-8,-5,2
-1,3,-2,2,8,17,25,17,-5,-22,-23,-32,-34,-46,-56,-69,0
1,7,-1,-2,1,1,-3,7,-2,11,19,16,-12,26,24,5,2
-1,-12,-8,-1,-6,-11,-1,-4,-3,-6,-9,7,-4,-1,-1,-6,3
-13,-1,-2,-13,-13,-11,-4,0,-32,6,4,-10,-38,6,1,-1,2
-3,-5,-2,-5,8,-12,-3,-8,-2,-5,-4,-2,1,-5,-11,3,2
15,-10,3,8,23,9,-8,-9,4,-3,-21,6,10,-10,-20,7,1
-2,9,4,-12,-7,5,2,-1,6,1,8,-14,12,1,-2,-10,1
-18,-1,-4,-6,-15,-11,-4,1,-31,3,-1,-11,-40,3,-2,-1,2
-7,0,-2,-3,-8,-1,-3,0,1,1,-2,2,0,2,-2,3,3
7,11,8,-40,1,1,-11,-5,8,17,8,-38,4,11,-11,-9,1
12,12,2,20,15,4,6,22,18,-9,-5,11,23,-11,1,2,3
13,-5,0,18,34,-11,6,-2,12,5,0,23,31,1,8,1,3
-7,-10,-8,-1,-3,-9,-1,-13,-6,-18,-8,4,-2,-19,-6,-2,3
-6,-1,2,-8,-11,5,-9,2,9,-12,-3,-10,-6,-1,-6,-3,2
3,0,-1,-3,-4,8,-2,-2,-10,-2,8,2,-11,-2,8,2,2
2,-2,5,3,7,1,4,-4,12,-8,1,10,12,2,-5,5,2
2,-3,3,-2,-3,9,2,-7,-6,-8,7,7,-5,3,2,2,2
0,1,-14,-25,4,-19,-36,12,-7,-4,-3,-13,-7,-9,-9,-2,1
3,6,-2,-3,16,-7,-2,-4,2,4,2,3,4,0,4,4,2
-7,-1,-4,6,-4,-18,-2,18,12,19,23,-26,15,32,14,-32,1
-1,-5,-3,6,7,-15,1,4,1,-8,0,-3,2,-4,-1,-6,2
-2,-7,2,7,8,-17,1,8,2,-5,1,-5,2,-2,-2,-5,2
0,-12,1,3,-1,-3,2,-7,-6,-14,-7,22,0,-10,3,3,3
-81,-84,-75,-57,-40,-6,31,66,81,94,91,73,29,-32,-99,-141,0
7,12,7,3,-11,13,2,26,14,17,6,-18,0,13,3,4,3
-14,-5,-3,-8,-11,-13,-11,6,14,-22,-19,-4,2,-15,-23,6,1
4,2,-1,1,6,-4,1,4,-2,-1,1,-4,-2,-6,1,1,2
5,11,3,27,43,29,15,12,4,-11,-32,-25,-39,-47,-30,2,0
-91,-89,-69,-41,-26,-18,-16,-22,-5,26,67,92,92,71,35,5,0
-11,-1,-8,3,-3,-9,-9,3,2,3,1,-3,6,-1,-1,-1,2
-10,-6,4,-3,-3,-2,0,-9,-4,0,-5,2,0,-7,-1,1,3
-48,-31,1,32,41,35,14,-1,-21,-26,-35,-54,-69,-70,-55,-42,0
107,93,71,38,8,-14,-9,-5,-2,-9,-33,-56,-59,-38,-12,27,0
33,2,16,-22,33,4,-5,-3,24,2,1,-9,31,-10,-4,1,1
-5,-9,-10,11,-5,-9,-1,2,-5,-10,-3,7,-2,-5,0,-4,3
5,2,-1,0,8,3,-11,7,0,-7,-3,14,1,-3,0,7,1
1,-3,6,-7,10,-7,-1,-5,-4,0,-1,-6,-11,-5,2,4,2
-1,7,16,23,20,14,11,2,-3,2,19,35,41,46,36,25,0
21,39,65,83,82,74,82,104,111,97,60,25,10,34,80,126,0
-5,-5,-28,19,0,-19,-13,13,13,-23,-42,37,11,-28,-18,20,1
-8,2,-2,1,-10,6,-4,1,-6,1,-1,-8,-9,0,-2,-4,2
0,-7,-3,0,-18,9,-3,2,-2,-1,0,-12,-6,1,-2,-8,2
-7,-2,2,-6,-9,-5,0,1,5,-11,-1,-6,-8,-3,-1,-1,2
17,37,25,38,42,23,1,4,-6,-22,-11,0,-10,-20,-12,-25,0
49,24,-6,-17,-6,-16,-42,-93,-142,-173,-167,-128,-83,-42,-21,-15,0
-65,-85,-101,-104,-89,-60,-22,25,63,81,92,87,73,64,61,55,0
-4,11,-12,-15,-5,-6,-17,8,-1,11,-10,-2,-10,2,2,4,1
-2,2,-6,4,34,-32,-5,1,-1,28,11,-1,7,11,12,6,3
-7,1,-3,3,-4,0,-12,10,-18,11,-3,-4,-8,0,-5,-1,2
-6,4,1,-5,-10,7,0,-2,-4,2,2,2,-19,11,5,5,2
11,3,-1,-6,27,-6,-5,-10,6,-5,-3,5,9,-7,-1,2,3
-12,-19,4,-11,-9,-13,-8,-8,-9,-21,-8,-1,-1,-20,-7,-12,3
2,-10,-10,-16,2,-9,-6,-22,-1,-10,-10,-8,-8,-5,-12,-4,3
-3,-2,-6,12,1,-8,-2,11,-4,-2,-6,7,-4,0,2,-2,3
28,22,6,-17,-46,-68,-67,-60,-37,-12,5,11,12,12,3,7,0
9,13,0,11,13,9,2,9,2,20,9,1,8,17,10,-3,3
6,-8,-6,-3,-1,-5,-9,4,-9,4,-5,4,-10,2,5,-3,2
-11,0,-10,23,-9,-3,6,9,4,-15,-18,20,-4,-6,-6,8,1
87,61,44,45,59,71,62,47,29,25,40,57,68,65,73,85,0
-12,-5,-9,-12,-11,-15,-9,-3,-10,-13,-26,5,-20,-12,-19,7,1
-69,-93,-107,-94,-83,-67,-53,-34,-13,12,37,28,6,-17,-43,-59,0
-67,-61,-69,-85,-95,-104,-106,-89,-77,-67,-67,-70,-85,-99,-105,-105,0
-4,2,6,-13,-10,2,3,-4,-5,-9,-11,8,-7,-10,0,0,1
-78,-96,-97,-79,-55,-32,-1,18,26,23,-3,-25,-44,-53,-61,-78,0
62,50,30,23,18,10,6,15,29,37,40,32,6,-7,-7,0,0
8,5,-2,-1,-20,18,7,7,1,10,1,-5,-8,12,-1,4,3
-6,2,-2,5,-4,0,-1,4,-5,-1,1,-4,-6,-5,2,1,3
-5,2,5,3,4,-3,5,-1,-26,8,2,2,-14,-2,2,0,2
-15,-16,-8,12,-14,-18,-11,16,7,-15,-21,12,-6,-6,-8,2,1
3,7,1,-9,9,-4,-1,-2,10,-14,2,-3,-8,0,5,-3,2
19,23,44,-41,17,14,35,-20,23,30,43,-58,17,22,12,-13,1
-11,10,0,-11,-4,-8,-1,1,9,2,-1,-2,3,1,-1,7,1
4,11,-7,24,23,-12,12,9,8,2,-13,9,11,-6,-5,5,3
4,3,-5,-12,-7,4,-4,-3,-2,2,-6,-1,-12,5,-7,6,1
-5,1,0,-1,0,0,-6,0,-1,3,-2,8,5,0,1,1,1
-2,0,7,8,6,-3,8,1,5,-3,0,8,14,-6,4,-3,2
-2,-1,-11,15,-7,-13,6,15,13,-1,-19,30,14,-4,22,-9,1
-5,-5,-7,-30,-42,-28,-12,-7,-14,-37,-53,-42,-17,-32,-90,-135,0
123,114,102,60,17,-17,-27,-11,22,46,46,50,76,90,87,74,0
14,-3,-2,4,13,-2,-6,7,2,0,-9,24,10,-6,4,9,1
14,25,3,20,24,28,15,-6,-3,12,1,8,-4,7,7,7,1
-4,11,-7,11,6,1,5,0,-2,2,0,5,12,-14,2,6,2
-1,8,14,6,-22,27,8,15,-3,3,0,7,-7,6,8,2,3
24,1,-19,-49,-75,-81,-59,-42,-54,-49,-49,-70,-96,-105,-128,-133,0
1,2,-7,-5,-8,4,-3,-1,2,9,-12,-3,5,4,-11,-3,1
-113,-168,-161,-138,-87,-35,32,75,36,61,33,-51,-110,-99,-119,-79,0
-95,-125,-127,-82,-51,-24,21,66,89,59,30,-12,-38,-19,3,34,0
-2,2,2,-6,-6,2,-2,1,1,-17,-13,7,-5,-5,-9,-3,3
7,2,-4,-5,15,-9,-1,-6,-6,2,-10,-2,-1,-7,-4,-4,1
-73,-66,-67,-52,-26,-6,-3,-19,-46,-88,-110,-122,-101,-66,-18,40,0
2,-18,-4,-8,6,-11,-9,-14,-5,-4,-7,-4,-8,-4,-13,5,3
26,6,-7,-7,-2,3,11,4,11,28,42,47,46,43,36,44,0
-23,-7,-3,11,-11,2,7,-19,-13,2,-1,-15,-24,14,-13,-4,3
23,28,17,11,18,24,28,4,-29,-62,-76,-85,-110,-131,-149,-147,0
-87,-96,-63,-13,16,12,1,-22,-29,-9,15,5,-16,-31,-65,-107,0
27,22,18,8,-25,-25,-22,-25,-33,-33,-30,-18,-1,-3,-18,-43,0
-10,7,-2,4,-7,0,6,1,-5,-1,3,3,-4,-4,3,5,2
-23,7,21,20,18,4,-21,-56,-46,-22,-31,-66,-99,-121,-140,-130,0
13,15,8,20,23,-1,13,19,18,19,-1,-1,33,6,5,-7,3
-8,-20,2,-4,-30,-12,0,12,-2,-20,-7,-8,-36,5,-10,5,3
9,1,3,-5,5,4,0,-1,7,-6,-3,-3,3,-8,3,-2,2
5,-2,5,-12,1,4,-6,-1,4,1,-4,0,-1,2,-2,2,3
4,-1,4,3,8,4,0,-1,0,7,7,5,6,0,12,1,3
7,-19,2,3,4,-15,-4,7,27,-16,-27,0,14,-12,-25,8,1
31,-9,-24,-28,-28,-21,-3,-6,-34,-32,-28,-17,6,34,47,44,0
-51,-32,-1,41,96,157,191,209,197,157,84,-2,-73,-135,-156,-152,0
3,1,3,12,4,5,4,6,3,-5,-9,2,3,-9,-1,-3,3
18,15,-2,-16,21,14,-18,-4,6,7,9,-13,5,6,-2,-1,1
-3,-4,6,2,-35,10,4,21,-6,-7,-2,-24,-35,18,-15,-8,3
2,-14,-1,6,8,-14,4,-5,1,5,-5,-6,4,0,-9,0,2
74,72,53,34,7,-15,-29,-39,-43,-42,-19,10,55,104,140,147,0
10,2,7,-12,-9,8,14,-5,17,8,3,-23,18,12,-26,1,1
-24,5,32,49,39,32,20,14,16,24,24,14,10,9,11,8,0
5,1,7,2,5,1,6,1,3,14,8,-9,6,8,2,0,3
0,5,-6,-7,-10,6,1,-5,-5,-3,0,-10,-13,3,-6,-2,2
8,10,5,-12,2,8,14,-13,5,1,20,-18,-9,9,15,-7,1
-82,-112,-135,-140,-100,-59,-50,-42,-30,-48,-86,-90,-81,-65,-46,-49,0
3,-5,7,-16,-8,8,0,-11,-5,-8,-3,8,-3,-2,-1,-2,1
-59,-67,-52,-45,-26,-16,-15,-22,-34,-46,-57,-49,-33,-19,-13,-7,0
-38,-31,-37,-54,-75,-110,-135,-160,-173,-192,-191,-168,-154,-134,-113,-107,0
13,-6,-21,-28,-32,-24,-24,-19,-20,-27,-43,-49,-35,-26,-7,4,0
-1,4,-7,-6,-11,6,1,-6,-5,-3,-1,-8,-11,2,-5,-3,2
-4,12,13,3,1,16,16,-9,-7,12,8,-16,-10,17,3,-12,1
-3,-6,-5,6,2,-5,5,-11,-7,-1,-2,6,-3,-7,7,0,3
-50,-38,-12,41,103,154,182,181,160,120,89,50,1,-69,-130,-159,0
-35,12,53,78,59,22,-28,-67,-103,-143,-146,-149,-130,-107,-78,-57,0
0,-6,-5,-6,-8,-1,-6,-2,3,2,-8,4,2,8,-10,2,3
-13,-4,-1,-12,-18,1,-7,-6,-7,-6,-4,-11,-13,-11,-3,-1,2
-2,3,1,-16,5,-1,-3,-16,-2,1,5,-22,4,-7,-10,-4,3
10,14,10,-11,6,16,1,-1,-4,20,19,-24,4,18,0,-11,1
0,-3,1,2,2,-2,1,-1,-3,2,8,5,-5,4,8,4,3
14,1,-1,-9,6,8,-4,-6,18,-7,-1,-12,21,-9,-10,-4,1
56,68,72,79,110,126,122,94,61,39,31,40,48,62,71,88,0
0,-3,9,10,19,-2,4,-5,-1,2,5,7,-4,3,9,6,1
-78,-39,-1,7,-34,-71,-114,-169,-213,-191,-140,-89,-48,-31,-44,-74,0
8,1,3,-4,9,1,4,-7,35,14,0,-14,22,18,-9,3,1
-45,-18,27,52,36,-7,-38,-44,-23,1,-1,-25,-61,-87,-110,-105,0
-3,10,5,8,-5,20,10,-6,-5,4,1,15,-8,7,9,7,2
29,20,12,-2,-3,6,8,-1,-14,-25,-28,-16,0,25,29,17,0
53,42,27,17,4,3,13,13,5,0,11,26,33,12,-12,-33,0
3,11,4,2,8,5,6,0,-11,18,8,-2,-5,9,8,0,2
-5,6,-4,6,-1,4,0,2,-2,-5,-1,6,11,-6,-2,-3,2
-1,1,5,1,-1,5,1,1,-6,8,2,2,4,3,-2,0,2
82,56,20,17,10,1,-35,-70,-111,-150,-153,-143,-125,-128,-146,-154,0
11,12,-6,-9,21,6,-6,-13,9,16,6,-8,26,11,0,-14,3
-1,12,8,7,6,8,6,5,4,4,9,6,10,2,8,3,3
64,68,57,37,26,25,34,45,48,45,48,63,76,84,74,44,0
5,-4,-9,6,6,-1,-6,-1,0,4,-16,-4,-4,-9,-6,3,1
-3,-6,4,3,3,-3,1,-3,-14,8,5,0,-6,5,2,-3,2
-1,3,-7,-5,-6,-3,0,-1,1,-5,2,6,-8,13,-1,-1,2
23,29,41,-29,20,33,28,-18,24,23,40,-30,17,29,19,-8,1
-104,-98,-92,-85,-76,-67,-69,-64,-57,-49,-50,-55,-53,-68,-84,-91,0
-1,8,1,2,2,5,-5,7,-10,10,-2,-5,-1,-2,-6,2,3
-8,-5,3,3,-1,-10,-2,7,-4,-7,-2,0,-1,-7,-11,6,1
52,28,-5,-32,-55,-74,-60,-18,-8,-36,-57,-72,-79,-55,0,15,0
0,9,8,-8,1,8,-1,1,0,8,12,-13,-8,13,1,0,3
0,10,1,7,2,8,9,-1,-2,14,4,-1,3,11,-4,5,3
9,2,-16,-26,8,-12,-32,5,-2,13,-9,-29,1,-4,-16,-6,1
-30,-23,-21,-29,-36,-29,-23,-25,-45,-75,-110,-130,-106,-51,12,61,0
17,-24,-22,3,3,-12,-21,4,34,-31,-53,2,8,-27,-39,10,1
2,3,-10,-39,-38,-34,-21,2,19,18,0,-12,-17,-24,-13,-32,0
0,5,3,7,0,1,7,7,-5,5,3,5,-4,10,4,-2,2
113,35,-38,-96,-144,-164,-158,-118,-76,-28,15,65,103,147,177,196,0
-7,4,-19,-6,-8,2,-18,-4,-9,-9,-11,-15,-19,-3,-14,-7,1
4,-2,-2,-1,7,-5,-1,-2,-14,1,-1,2,-8,1,-8,2,2
33,6,-3,17,43,-3,2,11,34,9,6,13,50,3,5,4,1
-15,12,5,10,-5,11,2,5,-13,5,-19,4,-4,-8,-13,2,1
-1,-15,1,1,-5,-4,0,-4,-8,-12,-9,18,-4,-10,1,2,3
13,16,16,-12,13,19,-3,4,3,1,8,-5,12,-10,6,-1,1
5,-4,0,9,3,-1,-1,9,4,1,2,10,13,-4,1,6,2
-22,5,-8,-14,-39,9,-2,-6,-24,-13,-8,-11,-8,-34,-8,-7,2
4,-12,-2,-6,-2,-11,-2,-1,4,-10,-7,-6,-3,-10,-5,-2,2
58,13,6,17,64,15,10,6,54,15,6,16,64,14,2,11,1
-4,8,4,-15,-25,14,7,-2,-11,8,16,-20,-22,12,6,-2,3
3,1,-2,11,8,2,2,3,-1,9,-12,12,7,5,-5,2,1
1,1,-2,-6,-10,2,0,1,2,9,1,-4,-3,8,-2,6,2
41,10,-1,1,47,5,5,-5,26,14,-3,-1,46,-6,-4,0,3
-11,1,0,5,-13,8,-3,3,-10,-2,1,1,-2,-9,2,-1,2
-7,6,3,11,-1,0,5,10,-1,3,-1,5,1,6,0,-1,3
4,-10,-8,-15,10,-11,-5,-22,-4,-9,-5,-14,-10,-4,-12,-4,3
36,15,0,-14,38,8,-11,2,18,11,18,-8,26,10,7,-4,1
5,10,-1,14,2,19,23,-17,0,12,-8,9,5,11,-2,-1,1
2,-49,-81,-87,-76,-58,-37,-32,-30,-31,-14,13,30,38,30,25,0
-4,-5,-4,-1,-4,0,-9,0,-4,1,5,-10,-8,5,3,-8,1
-1,0,-4,4,-8,5,3,-1,-3,-1,-1,-8,1,-5,-8,-1,2
46,9,-6,15,52,6,3,4,41,18,-2,27,50,14,8,12,1
-1,8,5,13,18,-2,10,-1,-3,13,12,1,3,10,8,2,2
-51,-58,-80,-78,-91,-86,-68,-35,0,11,17,20,33,64,104,128,0
-2,2,4,-1,5,-2,12,-13,-4,2,-2,-4,0,-3,1,-7,3
-10,12,36,60,75,82,66,41,9,-17,-29,-21,-3,0,-1,-1,0
-4,10,1,2,21,3,1,-16,4,6,7,17,22,-6,23,-6,3
12,16,1,9,9,16,14,-1,4,10,-6,-8,-1,0,-14,13,1
-13,0,-4,-16,-25,4,-7,-3,12,8,5,-32,-4,12,-8,-8,1
1,-10,-10,-14,1,-8,-6,-20,-2,-9,-9,-7,-9,-5,-10,-4,3
10,16,-3,-7,6,3,7,0,16,5,14,-10,12,19,1,-7,1
48,-1,-12,-16,39,-11,-18,9,22,10,-7,-1,24,-1,-12,13,1
1,11,-6,1,4,6,-4,2,-1,-1,3,-1,-4,-1,4,0,1
-6,3,5,3,5,3,1,-3,10,-6,1,8,7,6,0,1,2
9,-8,-2,3,7,-3,-2,0,8,-2,-5,1,7,1,-5,-1,2
22,4,11,0,16,6,23,-8,-1,27,17,-7,-7,26,18,-3,1
5,1,-10,-5,-9,4,-10,5,0,5,6,-6,2,2,6,-5,1
-1,-5,3,17,25,30,22,-7,-36,-55,-56,-44,-15,8,14,8,0
28,-4,-10,4,33,-11,-2,-2,51,4,-10,3,48,2,-5,1,2
47,16,-30,-56,-41,11,48,48,26,-5,-10,13,42,45,13,-20,0
20,5,-3,-2,23,44,68,74,61,35,13,11,15,26,23,1,0
16,-9,2,-14,2,-3,-4,-1,6,12,-5,-31,-9,10,-15,-5,1
5,6,6,-2,9,3,-3,6,-12,4,5,-5,-18,13,-3,1,3
116,88,25,-37,-81,-105,-103,-68,-16,32,63,76,73,60,52,35,0
-11,-7,-7,9,24,-18,1,-22,-13,13,4,-11,-14,14,-9,2,3
-5,15,11,10,3,8,19,1,9,10,7,1,3,12,13,-1,1
-18,-8,-11,-15,-19,-19,-17,1,-6,-15,-32,-2,-21,-19,-17,3,1
2,4,-3,-3,14,-3,-6,-5,12,-7,2,-4,6,-2,0,-2,2
14,11,3,-23,12,4,-16,5,16,15,1,-37,-2,16,-21,2,3
10,-7,-3,5,15,-7,-3,0,-8,0,-18,16,-2,-3,-7,1,1
13,17,0,12,25,-8,9,16,10,10,-4,1,12,-5,5,5,3
20,8,-19,-5,21,-6,-9,-3,7,9,-17,-6,6,-10,-9,7,1
107,122,139,143,133,111,84,49,13,4,18,47,77,102,103,80,0
-1,-17,-6,3,2,-12,5,-16,1,-4,-5,-6,-4,-8,-5,2,3
-1,-3,0,12,1,3,3,3,0,11,-10,11,14,4,-9,3,1
29,43,46,39,22,-9,-36,-57,-57,-67,-64,-65,-55,-47,-30,-6,0
4,-15,-3,3,7,-13,-8,4,0,-1,0,1,-11,9,-11,14,2
-8,-12,-17,7,-16,-10,-12,8,-10,-11,-23,5,-16,-12,-17,7,1
3,-1,1,-4,9,-5,-2,-3,-1,-19,0,-1,-6,-7,-4,-3,2
-107,-60,-34,-18,7,10,-15,-17,-15,-37,-36,-10,-2,-24,-37,-49,0
-1,-6,-2,1,10,-15,-1,-1,3,-8,-7,0,-5,-7,-6,5,2
7,-6,-1,4,2,-2,5,0,-2,-2,-1,3,-5,-2,2,3,2
3,2,-4,-11,-6,3,-6,-2,-2,2,-5,0,-10,3,-6,7,1
-4,4,-2,6,4,1,6,-6,-2,-5,6,10,5,-2,10,-5,1
7,19,10,-10,5,14,9,-2,2,22,18,-18,3,22,9,-10,1
-3,5,1,3,1,3,1,1,1,-6,4,5,4,-8,-3,9,3
-56,-68,-77,-79,-85,-96,-106,-101,-85,-66,-53,-50,-57,-71,-77,-80,0
-17,-5,3,0,-15,-7,-1,4,-18,6,-3,-11,-16,-5,-2,-3,2
-2,11,-5,2,-1,8,-2,1,-3,3,2,-2,5,-7,2,0,2
5,3,3,-2,-7,13,8,-5,1,1,1,-2,-6,2,-1,5,2
2,-25,-10,-21,-29,0,-11,-13,5,-8,7,-7,7,-5,3,-8,3
-12,38,14,15,-11,18,8,40,2,-1,-6,3,2,-10,-2,7,3
20,-11,-51,-78,-86,-82,-70,-45,-17,15,46,73,97,119,147,141,0
4,-7,-5,-7,13,-19,-7,-2,5,-1,-5,-2,24,-11,-6,-9,3
78,103,126,118,90,37,-27,-90,-126,-146,-149,-130,-108,-78,-65,-41,0
-5,4,1,-25,-13,11,-7,-17,-3,14,4,-26,-24,18,-6,1,1
1,-2,4,-11,-12,7,-3,-1,-2,1,-3,-5,-2,-2,-2,-5,2
-5,-5,-12,1,-7,-4,-17,6,-1,-8,-11,12,-17,-6,7,7,1
3,-1,5,5,-3,6,14,-4,8,2,-6,-5,0,9,-10,0,1
0,6,-1,3,0,5,0,3,2,-7,2,0,-1,-3,1,0,2
9,0,4,8,18,2,6,-4,0,8,1,0,-5,10,1,3,3
8,10,18,-15,4,12,1,3,6,13,4,-13,6,2,2,1,3
6,-15,-13,-19,9,-22,-11,-18,-2,-18,-13,-12,-14,-12,-17,-2,3
91,42,-12,-48,-82,-123,-151,-169,-179,-168,-137,-95,-37,21,49,51,0
5,-2,-3,3,-2,8,-1,-2,0,-6,-2,7,-3,5,-4,0,2
-6,0,-5,-3,-8,0,-4,-2,3,-3,-4,2,-1,1,-4,3,3
-58,-97,-125,-122,-107,-92,-92,-103,-119,-118,-112,-98,-95,-84,-51,-11,0
-2,-3,4,2,4,-2,-3,3,-8,8,4,2,-3,4,2,4,2
2,-9,-5,7,1,-14,-3,12,3,-9,-9,-1,-1,0,-10,-5,3
2,-3,-7,0,12,-1,-3,-17,3,-10,0,-4,9,-6,-7,-7,3
5,2,-1,-6,3,2,-5,-1,-1,1,5,-5,-11,9,-10,12,2
5,-14,-14,26,2,-13,5,8,9,-30,-12,27,17,-27,5,-2,3
6,-4,0,-16,-14,0,6,-5,15,-5,5,-25,-9,8,-3,-5,1
-6,-18,-8,7,8,-13,3,-22,-3,-26,-15,17,7,-22,-3,-11,3
6,1,-1,-2,9,-2,-3,0,20,-12,-5,-3,13,-3,-3,-6,2
-50,-32,-29,-32,-71,-88,-76,-77,-64,-32,-11,-20,-9,7,-40,-59,0
-2,-1,0,-4,-5,0,-2,0,-5,2,-2,-9,-11,-4,0,1,2
22,0,-13,0,20,-3,-4,-5,-3,-2,-8,-18,-9,-11,-18,6,1
-5,-7,-6,-5,-2,-7,-12,-2,-10,-4,-7,-6,-2,-13,-7,-4,2
11,3,-3,14,14,3,8,1,5,15,2,4,13,10,3,0,1
0,-10,5,-12,-6,-6,-3,-1,0,1,2,-7,4,-3,-4,-1,3
15,23,19,-42,12,-1,6,-3,12,20,41,-53,11,6,21,-18,1
56,14,-12,-38,-73,-115,-137,-130,-78,-18,33,85,132,196,244,258,0
-62,-56,-85,-108,-110,-121,-123,-97,-91,-115,-140,-156,-179,-172,-143,-105,0
4,-2,7,-5,2,0,2,0,6,5,4,-14,10,-4,-3,-2,3
25,51,49,40,14,-12,-39,-50,-43,-38,-31,-35,-57,-85,-84,-75,0
2,-8,-7,1,-7,6,-8,-4,-5,2,-5,2,-8,0,-1,3,2
-1,5,-8,1,1,3,-3,-3,2,4,-2,-16,-5,5,-8,-5,3
-3,19,15,-3,5,-11,31,3,14,-1,19,-14,6,1,23,-11,1
-8,0,-4,-4,-7,2,-6,-5,-9,-5,-4,-8,-11,-8,-3,-4,2
-19,-31,-18,10,41,69,90,81,36,-2,-10,-1,-16,-29,-25,-28,0
20,-8,-8,28,19,5,8,1,5,-2,7,16,12,7,18,-12,1
11,18,0,10,9,20,19,-8,3,6,-4,-5,0,0,-10,10,1
3,1,2,-3,-18,18,5,-3,1,-4,0,2,-2,3,8,-9,2
-51,-58,-45,-30,-26,-35,-45,-69,-78,-83,-80,-62,-37,-21,-35,-35,0
-2,-7,3,9,-2,-4,1,8,-3,-3,1,7,12,-9,-7,6,2
16,4,0,-31,4,6,-17,-4,9,-7,17,-31,-10,6,-4,-3,1
-9,-3,-8,-10,-22,3,-7,-4,18,3,-3,-27,-4,11,-9,-7,1
3,7,5,17,7,7,14,4,3,1,7,10,12,4,5,0,3
6,4,-5,-4,-1,6,-2,-2,-2,-3,-5,5,-6,2,0,0,2
0,2,2,4,-5,7,2,4,4,5,2,-2,4,14,-2,-7,1
17,2,6,10,27,3,2,2,30,7,13,7,35,13,8,1,1
5,-1,5,-8,7,0,1,-7,-4,1,4,-4,-2,-6,7,-3,3
-4,10,3,9,3,1,3,11,-5,2,10,10,-21,18,13,6,2
2,5,0,-3,-8,10,-4,6,-2,8,-2,-1,2,8,-8,3,2
-9,9,-2,3,-7,3,5,0,-6,0,4,4,-5,-3,5,5,2
-9,-15,-10,10,-15,3,-6,-7,0,-7,-17,9,0,8,-14,-9,1
-14,-27,-45,-54,-55,-50,-45,-44,-49,-62,-67,-60,-56,-63,-69,-75,0
-64,-83,-94,-85,-103,-111,-83,-62,-54,-50,-68,-95,-110,-127,-139,-140,0
6,1,-4,-2,12,-3,-2,-7,-8,-4,-5,20,15,-1,-12,1,1
11,-8,3,9,23,4,-7,-6,2,-3,-21,8,11,-10,-23,7,1
31,3,3,3,42,-5,3,-1,54,13,-4,7,55,7,1,8,2
4,4,-2,-10,4,2,-7,-3,-5,1,1,-13,-3,0,-17,4,3
-130,-132,-118,-67,-3,30,42,41,-2,-61,-82,-83,-55,-4,37,67,0
-17,-12,-24,17,-28,-11,-11,15,-19,-27,-34,35,-28,-23,-9,15,1
35,19,-10,-9,32,12,-2,-9,28,-4,8,-10,22,11,0,-11,1
3,-3,-2,13,0,-1,2,11,-1,4,1,5,1,-2,3,5,3
3,4,-1,8,8,6,3,-3,8,12,4,-6,9,4,5,0,1
-2,-5,-2,7,-5,0,0,3,-5,-9,2,8,-1,-1,0,-3,3
-11,-19,-26,6,-7,-22,-30,9,-13,-14,-23,17,-2,-11,-21,1,1
0,6,7,11,5,7,8,5,-5,13,6,7,1,8,10,2,2
25,42,44,40,32,30,8,-7,-15,-11,7,23,37,31,22,12,0
15,25,42,47,27,7,20,36,41,43,16,-28,-50,-18,8,13,0
-5,-4,-1,6,-8,0,1,5,2,5,10,-1,-8,15,6,3,2
-3,-2,0,2,6,-7,-2,0,-5,-9,-4,2,-7,-1,-9,2,2
1,-6,-5,-8,-8,-1,-8,-1,3,3,-7,1,2,8,-11,1,3
-18,7,4,-2,-11,12,-3,-6,18,3,-12,-10,11,4,-10,-7,1
2,12,0,19,5,22,21,-15,-3,18,-7,9,7,12,-1,-2,1
-9,2,-2,-5,-12,1,0,-1,-7,-5,-6,-9,-4,-8,-10,-5,2
-3,-11,-4,0,-1,2,-21,2,8,-3,-4,-2,12,-4,-12,4,1
-2,-8,-10,-23,-18,-29,-40,-37,-26,-18,2,-15,-41,-54,-68,-78,0
-77,-81,-86,-89,-97,-110,-117,-120,-125,-120,-105,-89,-76,-70,-72,-84,0
-5,-13,-8,28,32,-19,3,-14,-5,-12,4,40,7,-7,18,8,3
-7,-5,-9,-11,-13,-5,-7,-6,0,-15,-6,-1,-8,-5,-3,-5,2
-38,-1,7,-17,6,87,94,32,-25,-92,-119,-117,-97,-87,-51,-6,0
-90,-133,-160,-175,-171,-159,-116,-40,44,121,187,234,245,222,166,86,0
19,13,-5,-16,22,14,-20,-3,10,7,8,-14,9,6,-5,-1,1
-3,3,-14,-4,-5,6,-14,-5,-6,-3,-8,-20,-17,1,-13,-8,1
-5,-2,-12,-7,-3,-4,-14,-5,-6,-11,-4,-13,-2,-19,-7,-5,2
-1,10,-1,2,-8,8,1,10,8,5,-4,-3,2,2,-4,5,3
2,-6,-3,6,10,-11,-5,5,3,6,-8,4,-1,6,1,-1,2
-18,10,48,64,68,62,43,19,-7,-25,-32,-28,-18,-14,-20,-13,0
6,0,-1,-5,9,-5,-5,1,1,6,1,-7,6,9,-6,-8,3
-35,-22,-27,-36,-61,-81,-97,-100,-100,-100,-85,-68,-52,-42,-27,-14,0
35,34,40,23,-11,-29,-26,-27,-22,-5,14,19,25,38,37,30,0
70,72,83,80,61,24,-12,-48,-66,-56,-34,-12,9,27,41,60,0
-35,-23,-19,-4,-15,-11,-19,-14,-17,-41,-59,-68,-56,-31,-5,-5,0
14,-9,-4,-11,4,-9,-10,5,-8,16,6,-23,-4,1,-5,-2,1
7,8,-3,5,13,6,-2,-1,-1,10,-13,9,9,1,-5,0,1
-8,6,-9,2,-13,9,-4,-1,-9,-4,3,-3,-13,0,2,-1,2
-2,-8,-3,-6,7,-21,-3,-1,-11,-5,0,5,-6,-5,-4,4,3
-2,-7,-1,-2,7,-8,2,-13,1,-8,0,-2,0,-9,-4,2,3
8,12,7,-1,10,15,4,-3,2,25,18,2,5,16,15,12,3
-4,-4,-7,-5,-38,7,-1,12,-10,-11,-9,-12,-37,-1,-3,-1,3
-50,-120,-164,-166,-152,-105,-64,-15,6,13,27,30,45,50,31,-8,0
14,1,5,-3,0,10,6,1,17,12,2,-19,14,-6,0,4,1
-4,-3,-12,-9,-2,-5,-15,-6,-4,-12,-4,-15,-1,-20,-10,-5,2
-3,4,26,72,116,107,81,39,-28,-88,-141,-167,-179,-179,-118,-37,0
-5,4,-2,-4,-5,2,1,-5,-13,2,2,-3,-18,2,0,3,2
11,3,-9,1,18,2,-8,-7,-3,5,-1,4,15,-3,-1,-5,1
-5,5,1,0,-8,8,1,1,4,7,2,-2,0,8,1,3,2
6,8,-3,5,13,5,-2,-1,-1,8,-12,9,11,0,-6,-1,1
-2,-11,3,-2,-3,-7,-5,4,-4,-1,-1,-2,9,-12,-5,2,2
11,4,5,9,18,1,9,1,12,11,4,9,16,7,9,4,2
-4,7,-1,2,-9,7,4,4,6,8,-2,4,6,11,-3,2,2
-4,-4,2,-4,-10,1,-4,4,1,-14,-12,10,-4,-2,-5,-4,3
9,14,-1,-1,9,8,7,-4,0,4,-3,7,9,-5,1,3,2
3,-9,-5,2,0,-4,-7,2,-1,8,3,-6,-7,9,4,-2,2
22,45,61,58,63,64,32,-24,-61,-84,-102,-110,-82,-47,-24,24,0
121,109,91,66,46,39,50,43,30,-7,-34,-27,4,21,28,27,0
-24,-18,1,30,54,66,64,51,25,8,-2,4,17,29,32,22,0
-37,-7,13,21,7,-21,-48,-61,-76,-82,-82,-84,-90,-92,-80,-59,0
-2,5,5,3,4,-3,3,5,-6,1,1,4,14,-10,-5,1,2
-57,-25,-18,-27,-50,-89,-134,-132,-116,-93,-59,-29,-27,-40,-39,-58,0
1,-59,-116,-168,-223,-257,-195,-113,-77,16,81,122,146,143,117,59,0
-9,-23,-14,-16,-23,-11,-12,-16,12,-14,-11,-26,-9,-6,-16,-8,3
-2,-14,-19,8,-12,-2,-13,-1,12,-17,-17,-3,-4,1,-22,-1,1
-13,-6,-6,23,8,-18,4,4,2,-8,-6,11,-8,5,4,-2,3
1,-1,1,-3,-13,6,4,1,0,-6,3,2,-9,7,-1,2,2
0,-2,-9,-3,-8,-1,-6,2,1,9,-12,-3,6,4,-12,-3,1
6,-1,-3,1,-2,7,-1,-2,0,-6,-2,5,-4,5,-4,0,2
27,11,-1,-10,-17,-26,-29,-27,-23,-17,-9,-6,-1,12,16,8,0
-6,27,39,60,54,25,-2,-43,-70,-92,-102,-74,-20,14,32,58,0
25,-1,9,-12,-6,33,9,-14,6,3,16,-22,-2,17,14,-27,1
-95,-51,4,53,82,92,84,75,41,18,-14,-53,-96,-131,-136,-127,0
-7,-9,-7,9,-5,-9,-2,3,-2,-11,-3,8,2,-6,2,-5,3
-1,5,3,-2,-6,5,4,3,-1,14,-1,-7,2,17,-12,-2,3
-7,15,27,27,26,19,10,5,0,6,8,14,15,7,4,4,0
-150,-83,-8,64,118,147,151,121,72,12,-56,-118,-162,-185,-211,-220,0
-30,-28,-30,-26,-39,-55,-69,-80,-81,-78,-58,-42,-19,2,12,11,0
-1,-4,1,-8,1,-8,0,-6,-2,-6,-1,4,2,-9,0,3,3
2,5,3,5,-3,12,-1,6,3,-2,3,12,5,4,2,5,2
-2,5,-7,-8,-9,2,-8,3,-4,-3,-5,-4,-6,-9,-1,-1,2
-6,12,-3,4,-5,6,5,1,1,-3,4,3,8,-6,3,0,2
-16,1,-2,12,-8,0,-5,8,-18,0,-23,11,-4,-10,-19,2,1
5,2,-5,-9,12,1,-12,-9,1,-13,-1,-2,5,-14,-7,2,3
17,-1,-6,-1,7,7,12,11,12,27,52,70,73,80,76,66,0
10,-48,-105,-130,-131,-131,-131,-127,-112,-100,-91,-74,-64,-55,-50,-48,0
5,0,-6,-9,11,-1,-13,-9,2,-9,-1,-4,7,-12,-10,3,3
-4,0,-5,-9,-2,-4,-8,-5,-1,-10,-5,-7,-13,-2,-9,2,2
-20,-13,-20,-45,-72,-79,-61,-30,14,50,68,62,50,37,17,-8,0
-9,3,8,-7,-9,10,-5,-2,-9,-4,1,7,-14,-1,2,8,3
3,8,0,7,-2,13,8,0,7,5,10,-2,-2,20,4,-2,2
-9,7,-4,-9,-24,14,1,-5,-2,-9,-5,-10,15,-33,-2,-6,2
0,-3,-12,-34,-18,-2,-18,-10,-2,-4,-7,-25,-21,7,-10,-13,1
-4,5,4,-5,-1,1,3,-3,-5,-5,5,-3,3,-10,5,-4,2
-9,6,6,-15,-5,6,-5,-8,3,10,-1,-3,14,8,-8,-5,1
24,6,5,9,32,3,11,-1,37,20,10,5,43,17,15,-3,1
-32,-36,-28,-39,-7,44,75,89,92,91,62,17,-15,0,6,27,0
51,0,-41,-58,-62,-72,-79,-99,-105,-89,-42,17,72,116,139,135,0
5,12,2,4,6,9,3,6,11,5,12,-3,12,6,7,1,3
2,13,-4,-1,4,6,-6,7,3,2,-3,0,3,-2,-4,5,3
-9,3,7,-9,-8,9,-4,-4,-6,-6,0,4,-14,-4,2,8,3
-3,-3,6,-8,4,-1,-3,-6,-8,-1,2,-3,3,-6,-6,-1,3
5,-1,-2,-5,6,-1,-5,-4,1,3,5,-8,5,-4,-1,-1,3
6,23,32,51,35,20,-9,-31,-58,-47,-28,4,0,-1,-3,-32,0
9,-2,-2,-1,2,5,2,-4,10,3,5,-3,-9,17,-8,12,2
55,40,15,-3,-30,-35,-32,3,49,81,109,104,96,98,99,91,0
-4,-9,-3,-4,4,-20,-2,-2,-13,-5,-2,7,-8,-6,-5,5,3
-1,-5,6,-7,-5,3,-4,-2,-2,0,1,1,1,-5,4,1,3
11,0,1,-5,5,3,0,-1,6,-6,-3,-6,3,-11,2,-3,2
-41,-35,-33,-31,-32,-32,-31,-37,-44,-65,-88,-103,-107,-102,-92,-77,0
-4,5,-3,5,-13,6,2,7,4,7,-1,2,3,13,-6,2,2
-7,14,28,-31,4,4,-1,-2,-16,12,54,-25,-4,26,18,-14,1
-12,-22,6,-1,-13,-10,-6,1,16,-9,-24,1,6,-8,-16,2,1
201,196,166,105,37,-38,-93,-117,-105,-80,-59,-38,-27,-20,-11,-1,0
61,86,92,75,51,19,0,-13,-26,-23,-15,-15,-14,-11,-13,-2,0
3,-2,3,22,11,-32,-54,-49,-53,-44,-12,9,-3,-10,-11,-10,0
1,20,-1,1,8,12,0,2,5,21,7,-9,2,17,6,-1,3
-5,-16,-3,-6,-1,-8,-6,-15,-4,-4,-8,-1,-3,-7,-8,3,3
-24,12,16,-43,-34,13,-4,-14,-24,7,2,-40,-38,3,-13,-6,1
18,4,2,10,23,-3,2,10,18,11,6,7,24,12,9,-2,2
-3,2,-8,-4,-13,5,2,-6,-7,-2,-2,-4,-6,-5,1,-4,2
-1,-1,-1,-11,-1,1,-12,-2,-2,4,7,-18,-6,10,-3,-10,1
-27,4,-7,-14,-43,6,1,-7,-40,-15,-6,-8,-24,-31,-9,-5,2
33,58,58,37,21,15,24,27,25,4,-4,-2,1,7,9,23,0
11,1,-7,3,5,4,1,-2,2,7,-4,-16,0,5,-6,-11,1
-1,-1,-2,2,2,-2,0,-3,-1,-2,-3,2,0,-10,6,-1,3
5,-12,-2,-4,1,-5,-8,-1,11,-13,-1,2,12,-8,-5,-1,2
-9,-16,-8,-5,-13,-11,-12,-1,-6,2,-14,-13,-9,-4,-7,-11,2
-7,-6,8,10,-8,2,16,-4,5,-6,16,-15,0,11,3,-13,1
53,10,6,14,57,12,9,6,54,13,3,17,60,12,2,12,1
-1,1,-11,-4,7,-8,-2,-11,8,-12,-5,-2,-5,-1,-5,-2,2
-137,-143,-130,-97,-48,-4,47,84,87,53,-7,-78,-142,-187,-215,-223,0
-86,-78,-69,-75,-61,-48,-79,-96,-69,-47,-32,3,22,-4,-25,-3,0
6,-5,-9,-17,-26,-49,-83,-134,-169,-180,-151,-95,-18,61,115,150,0
5,-18,-13,-18,6,-22,-10,-17,-2,-20,-13,-9,-15,-12,-12,-3,3
-2,-4,-2,-6,7,-20,-4,2,-7,-3,3,-1,-4,-2,-2,0,3
-5,-12,-4,-21,-14,-12,-21,5,-19,-10,-7,-10,-18,-21,-14,8,1
-31,-21,-13,7,-25,-21,-11,-1,-18,-29,-15,6,-25,-14,-11,-6,3
9,-2,7,14,3,13,27,-14,13,-8,25,-5,9,5,14,-4,1
8,16,2,-4,-6,21,6,1,22,-5,5,-2,44,-22,-1,0,2
26,3,24,-17,35,-1,1,2,22,8,9,-1,37,-10,15,-4,1
-27,-35,-46,-70,-73,-69,-72,-91,-94,-83,-84,-85,-86,-88,-91,-84,0
-2,1,-47,26,2,-6,-23,6,4,-13,-50,21,-12,-14,-19,8,1
-2,-9,-10,-1,-13,6,-2,-11,-5,-1,5,-6,0,-2,-10,4,3
6,0,-3,2,-3,6,0,1,-2,-3,0,4,-4,-3,5,2,2
-5,14,15,3,1,14,14,-2,1,5,14,5,2,10,11,1,1
2,-7,-21,-22,-12,-4,-11,-19,-23,-24,-5,24,50,65,78,85,0
-42,32,79,112,98,70,45,38,56,48,16,-35,-85,-100,-90,-48,0
-16,-25,-42,-50,-53,-52,-43,-32,-24,-20,-10,-6,-4,8,23,22,0
-1,-7,-2,6,-2,-7,-3,8,3,12,-4,-6,3,5,-1,-2,2
8,-10,-6,-5,10,-18,-8,2,3,2,-5,0,23,-10,-4,-11,3
32,22,9,8,43,22,8,-3,41,19,9,5,48,16,10,-1,1
24,7,5,0,29,7,-1,3,35,-3,0,-1,29,-2,1,3,2
-6,9,6,-18,-3,6,-4,-8,4,11,1,-4,14,11,-7,-6,1
38,22,-4,-23,-28,-30,-40,-47,-4,22,38,66,87,78,54,49,0
92,68,41,31,50,63,59,28,-20,-54,-59,-38,-21,-9,-8,-8,0
-6,-4,7,-1,11,-8,1,-8,-7,-4,-1,3,-8,-5,0,4,2
0,1,-10,-7,-16,9,-6,-3,-5,7,-2,-4,7,-7,-4,1,2
8,13,8,0,10,16,5,-2,4,27,19,5,8,17,16,13,3
-25,-30,-36,-36,-15,7,-3,-32,-61,-74,-61,-35,-16,9,40,68,0
-102,-104,-103,-87,-49,8,62,109,130,124,105,75,26,-36,-88,-123,0
4,-6,8,-2,-12,13,4,1,1,1,2,1,-3,4,4,-2,2
-3,16,26,-13,-5,-7,38,1,15,9,7,-9,12,-1,22,-11,1
-1,-2,4,6,6,-9,9,1,-1,16,-13,-1,2,9,1,-11,1
-12,-26,-10,-10,-19,-11,-4,-25,-9,-28,-9,0,-7,-19,-6,-14,3
-1,42,18,1,-14,29,11,35,-4,32,4,-14,-9,15,1,11,3
-3,3,0,-9,1,-2,-3,-6,-8,-10,-1,2,-9,-8,1,-2,2
3,-9,5,-3,2,3,-2,-8,-1,-7,4,8,13,-15,4,2,2
5,2,-4,-6,13,-7,-6,-2,-1,13,1,-2,6,4,-1,3,2
-2,-2,3,-1,-8,6,-1,1,-3,-2,-3,4,-2,-2,-2,2,2
20,0,-4,-15,7,3,-5,-4,-14,4,17,9,4,-3,12,2,1
-4,-1,2,3,-3,3,1,-1,-5,-1,5,-1,-7,7,3,-6,2
5,25,1,-38,-10,17,-23,9,-7,7,-5,-14,-15,8,-13,1,1
3,-8,-4,-5,-4,-2,-4,-4,-4,-5,-1,-12,-16,0,-6,-1,2
-58,-85,-94,-83,-56,-18,25,65,103,128,132,117,89,65,34,7,0
-19,-10,-7,7,-24,-3,-3,1,-17,5,-3,12,-15,4,13,-3,3
59,42,26,-52,29,29,27,-9,22,34,43,-50,11,36,23,-21,1
-2,-4,-2,1,3,-8,-4,2,5,-3,-2,1,11,-5,-7,1,2
14,1,-2,-10,5,2,-2,-2,5,11,-5,-26,-4,8,-10,-9,1
1,-9,1,-10,4,-11,-6,-4,-2,3,-8,-3,6,-7,-11,2,2
2,2,5,-1,4,3,5,-4,-2,14,-1,-9,0,12,-2,-8,1
0,4,-6,3,-8,8,0,1,-1,5,-3,2,7,1,-4,-2,2
-79,-86,-85,-75,-56,-39,-29,-36,-62,-77,-76,-59,-45,-43,-46,-63,0
2,-10,-4,9,-2,-10,1,8,-5,-4,2,5,-7,4,0,1,3
27,12,7,4,41,5,8,-4,25,9,-2,3,42,-7,-1,2,3
-1,8,1,-7,-1,6,-3,-2,-13,1,-1,-6,-10,0,-7,-2,2
0,7,12,5,-23,25,8,14,-1,1,-1,6,-6,5,6,1,3
9,17,4,-17,14,10,-9,-3,0,7,12,-12,-1,4,3,0,1
5,5,3,-26,-2,11,-14,-9,-5,25,-7,-34,-1,-2,-7,-10,1
-3,-2,-7,10,0,-6,-3,8,-4,-3,-7,6,-6,-1,0,-2,3
31,10,1,0,27,12,0,2,22,8,3,-9,35,-8,10,-12,1
-10,0,2,-4,-5,-6,2,-2,-8,6,5,-1,-6,6,-1,3,2
22,0,9,1,24,2,5,1,36,5,6,-1,40,5,-1,2,1
-24,-3,-4,-8,-31,0,-3,-5,-32,-9,-3,-5,-34,-13,-3,1,2
2,4,7,-22,-5,13,-9,-9,-8,24,-2,-33,-2,-1,-5,-11,1
-3,-9,2,3,-8,-2,-4,6,-5,-4,5,8,-2,2,5,0,3
5,1,1,-10,9,-1,-2,-11,6,2,-6,-8,9,-4,-9,-4,3
0,5,-1,-2,-2,4,-3,4,1,-5,-2,4,3,-3,0,-3,2
-274,-251,-209,-165,-108,-51,16,59,51,11,-32,-104,-153,-171,-193,-200,0
6,10,5,12,7,-9,35,0,9,-2,21,5,6,9,39,-20,1
0,2,1,13,1,5,6,4,5,-14,-9,4,2,-12,-1,-4,3
-14,-8,1,19,-6,-6,4,7,-11,-11,-10,5,-5,-11,-17,7,1
4,9,-9,26,22,-13,12,9,8,2,-12,8,12,-4,-5,4,3
-7,-11,-2,-23,-14,-13,-20,5,-19,-10,-7,-10,-17,-22,-14,8,1
-6,9,-14,7,-1,3,1,-7,8,-14,-16,5,1,-6,-19,6,1
33,9,14,-18,18,11,9,-1,19,3,32,-20,3,26,18,-13,1
6,-2,6,2,-20,16,7,9,2,5,4,-8,-4,9,-3,0,3
7,6,-3,6,12,6,-1,0,-2,11,-13,9,7,3,-4,0,1
-8,19,45,42,29,12,-4,-24,-38,-50,-67,-67,-53,-28,-10,-2,0
6,4,4,0,11,-4,2,5,6,14,-2,-8,4,3,3,-1,1
4,0,1,-9,-1,2,-8,3,20,-12,-2,-12,13,-7,-8,-5,2
58,57,36,-2,-43,-68,-82,-74,-60,-57,-72,-73,-58,-34,-14,-11,0
-46,-76,-64,-72,-72,-61,-14,29,70,128,131,118,81,50,-6,-34,0
0,-8,4,-18,-4,-2,-17,1,7,-5,4,-13,-3,-7,3,0,1
1,0,4,-1,2,3,3,-4,4,-1,-1,7,6,-8,7,3,3
1,-1,3,-1,-9,12,1,-1,-1,0,1,-4,3,-2,-2,-3,2
-13,-6,25,12,-10,9,24,-5,-7,28,16,-11,2,8,23,-7,1
-4,18,27,-40,3,5,1,-6,-17,16,55,-36,-4,27,12,-15,1
-36,2,0,-13,-47,8,2,-9,-42,-8,-3,-11,-36,-15,-10,-4,2
7,-8,-9,-4,14,-14,-2,-11,-4,-9,-8,22,-17,-2,9,10,3
-3,-5,-1,1,-4,-5,-4,6,-6,13,4,-4,5,2,4,-4,2
-15,-5,-9,12,-9,-12,8,-4,0,-12,-30,10,4,-22,-33,18,1
-15,2,0,41,4,-10,17,17,-5,-39,-14,38,9,-37,9,1,3
19,6,4,4,35,-5,6,-2,29,8,3,10,29,20,2,-1,2
37,-4,-43,-62,-58,-45,-29,-32,-56,-86,-101,-108,-108,-88,-64,-42,0
3,3,-3,-4,-9,9,-1,0,-5,3,-4,-6,-4,-2,-7,1,2
-3,-7,9,-4,-14,2,8,-1,5,8,6,-37,-11,5,-4,-8,1
10,9,15,-13,7,11,14,-10,-7,-8,1,26,-10,1,13,8,1
3,-9,1,-9,-5,-1,-9,0,2,-8,-3,-4,-1,-9,-4,1,2
3,10,6,1,6,9,-3,7,-2,15,5,-3,4,10,5,-4,1
-3,7,4,-3,-5,9,2,0,5,-7,5,-2,6,1,-2,-3,2
5,21,2,13,3,18,13,7,14,18,11,-14,10,14,1,3,3
5,-3,1,-3,-1,-1,3,-1,-2,-2,1,2,-3,0,2,0,2
3,-5,0,-4,-9,8,-1,-5,-3,-6,4,2,-4,1,-3,1,2
-1,-6,1,12,7,-11,9,0,-4,5,-6,5,-13,3,7,3,3
-11,-20,-27,-23,-11,-8,-19,-26,-29,-38,-34,-26,-18,-10,1,15,0
-13,0,3,33,-18,-4,13,32,-4,-26,-12,11,-8,-22,-3,3,3
2,8,-1,-12,-5,10,-1,-7,5,6,-9,-7,-7,11,-7,-3,1
77,6,-1,13,86,10,3,-3,67,17,1,28,86,11,6,10,1
16,-1,-9,-27,-1,-5,-13,-2,10,-5,-6,-7,0,-1,-16,8,1
53,-13,-9,27,46,22,6,-17,28,-12,-6,24,23,6,11,-5,1
-10,-16,-41,16,-3,-23,-37,11,-18,-14,-31,23,-2,-20,-23,6,1
0,-3,7,-2,-13,8,4,2,-3,-2,-3,-6,-12,-6,-7,10,2
4,-8,-5,-12,0,-6,-16,1,1,-6,-12,-12,6,-18,-14,-5,2
27,-2,-3,5,33,-10,-2,7,49,-1,-1,11,47,6,0,5,2
3,14,-7,-4,12,1,-9,2,5,-1,-1,3,6,-3,-1,3,3
-6,9,17,-1,-1,9,13,-2,-6,25,23,-18,8,15,17,-15,1
-20,-47,-64,-69,-90,-98,-104,-77,-32,-1,7,10,65,118,125,98,0
-85,-59,-50,-45,-50,-34,4,54,85,80,64,37,11,-4,-12,-29,0
6,21,7,-3,-4,20,13,2,5,17,7,-1,5,16,4,3,2
-16,-3,7,-2,-15,-1,0,3,-18,8,-1,-8,-12,1,-8,0,2
-10,10,-7,-1,-8,-4,4,0,-10,-3,-1,0,-9,-8,4,-2,2
-1,3,9,-17,-6,14,-5,-9,-11,21,3,-28,-3,0,-3,-10,1
-82,-83,-75,-54,-27,-3,31,28,-17,-65,-108,-147,-190,-184,-139,-83,0
-6,-24,-10,-12,-17,-6,-4,-26,-8,-21,-5,0,-8,-12,-4,-10,3
8,-2,-3,1,3,-1,2,-1,4,-5,-3,2,-5,5,-5,3,2
-55,-58,-57,-45,-29,-3,32,77,103,117,115,95,59,11,-38,-86,0
-89,-102,-86,-40,28,97,135,145,116,55,-24,-69,-103,-122,-122,-107,0
11,3,11,5,5,9,23,-7,12,7,25,-17,19,10,-2,-2,1
-9,22,4,7,-7,13,5,13,-17,23,9,12,-19,10,20,15,3
-9,-18,-3,9,2,-19,3,-7,-7,-10,1,17,1,-11,9,3,3
37,14,16,-22,19,14,14,-1,27,7,33,-33,5,26,16,-15,1
44,36,35,35,38,42,42,32,15,1,-19,-31,-30,-12,14,50,0
17,10,9,7,-12,19,6,30,4,24,1,-11,8,10,6,-6,3
-14,3,2,7,-14,8,3,1,-17,-1,2,8,-11,-2,3,1,2
1,2,1,-1,-5,8,-1,0,1,2,-2,1,-4,-3,2,7,2
8,-13,-12,-21,12,-21,-12,-18,-3,-14,-13,-16,-13,-11,-20,-2,3
-3,2,0,-8,8,-3,-4,-9,0,-5,-6,-17,-3,-10,-15,1,3
-110,-111,-99,-73,-29,6,26,10,-22,-51,-69,-62,-40,-10,3,-6,0
1,-3,-3,6,-1,-5,-2,9,2,-18,-11,7,2,-14,-7,-1,3
7,-3,-2,17,14,-10,13,3,18,16,3,0,19,10,4,3,3
-13,7,4,3,-9,2,3,6,-17,3,1,1,-18,2,0,5,2
-5,7,17,1,-1,8,13,-1,-4,24,21,-13,10,16,15,-13,1
-15,2,-4,17,-8,-2,5,5,-17,20,8,16,-8,12,16,7,3
-112,-102,-96,-103,-74,-31,-2,23,24,-6,-38,-42,-28,-21,3,37,0
28,20,13,16,30,56,77,80,69,55,29,8,7,0,3,2,0
-23,-2,-3,-15,-24,-4,-4,-12,-27,-5,0,-8,-36,2,-3,-3,2
2,17,6,11,12,4,8,12,16,7,1,3,19,-1,4,5,3
0,5,4,-5,-4,-6,13,1,-2,-6,-9,17,3,12,-7,-7,1
8,8,-5,-5,26,-6,-8,-8,2,16,-5,25,16,7,12,4,3
2,1,6,-12,0,-3,-5,4,4,3,4,-10,6,-1,-4,1,3
105,34,8,-2,101,33,6,5,79,28,-6,9,105,-6,5,7,1
-69,-71,-60,-49,-45,-42,-39,-37,-18,12,47,79,91,88,69,61,0
-5,-12,-2,5,4,-13,5,-10,0,-10,-1,2,3,-12,-2,3,3
-1,18,13,-23,5,-3,2,2,-8,11,14,6,-8,23,20,-12,1
-4,-10,-13,-6,-7,-7,-17,-2,-3,-6,-5,-10,-10,9,-12,-10,1
1,-6,3,-1,4,-2,-3,-3,-11,8,5,-2,-4,6,3,-5,2
8,4,7,8,21,4,7,-5,5,9,5,3,-1,12,7,3,3
3,0,-11,-16,0,-1,-14,-11,20,4,-4,-28,14,3,-19,-7,3
-10,-13,-1,16,-13,1,-3,7,-12,-10,-18,16,-10,-4,-13,4,1
-1,10,6,-25,-7,19,-6,-16,-7,-9,-6,-12,-17,-12,-8,3,3
-6,-7,4,-2,-5,-7,-2,2,0,6,2,-2,12,-3,1,-5,2
-2,-4,5,5,-5,6,0,4,2,5,-2,10,5,6,4,0,3
3,5,4,3,4,8,3,0,6,-1,7,8,5,8,5,2,2
1,2,8,-7,11,1,3,-12,3,1,2,8,9,-7,5,6,3
-25,-23,-16,-9,-25,-18,-9,-20,-15,-17,-7,1,-20,-18,0,0,3
-33,-1,41,91,128,135,129,102,66,51,37,40,43,54,63,69,0
-28,-19,-9,-10,-21,-33,-43,-31,-1,31,37,32,14,-4,-19,-40,0
-3,3,-5,-11,-17,4,-2,-2,-7,11,0,-16,-2,-3,-3,-4,2
9,13,-5,0,6,12,12,-12,10,4,0,-9,8,4,-4,-3,1
-4,-11,6,-11,-18,1,-6,2,-7,-11,-6,-4,-16,-10,-1,0,3
3,2,-1,-12,3,-1,-8,-2,-4,-4,-1,-12,-4,-3,-16,2,3
4,1,-1,0,1,-2,3,0,-6,1,-1,8,10,-10,-5,7,2
69,81,91,91,54,-5,-57,-86,-69,-49,-31,-28,-27,-29,-17,30,0
-15,6,-7,-5,-14,-2,-7,1,-20,-8,-1,-7,-23,-4,-9,1,2
114,110,87,70,49,24,15,21,35,52,67,77,82,90,107,136,0
9,19,11,-12,7,18,3,-2,-2,22,21,-26,5,21,3,-13,1
-15,-13,-26,23,-23,-9,-15,16,-20,-21,-35,40,-21,-23,-9,17,1
23,-1,-3,7,11,12,1,2,14,18,11,11,24,17,12,0,1
-9,-6,0,-4,-8,-6,-8,2,-5,3,1,3,-9,4,1,6,2
8,4,0,-12,11,-3,-8,-1,-9,27,3,-11,-3,21,4,-12,3
1,-8,2,-17,-11,-1,-3,-8,6,-14,-4,-15,-9,-1,-27,10,1
-4,-1,-1,5,-5,1,-1,2,-3,1,0,-1,0,-6,6,-4,3
-2,2,11,14,17,-7,8,8,1,-2,7,9,6,6,5,-2,2
50,24,9,9,63,22,13,-7,55,33,14,7,62,38,10,-1,1
-8,5,2,2,11,7,0,-16,-4,9,6,11,17,-5,16,-6,3
3,4,8,4,4,3,0,13,1,11,5,5,-2,19,2,3,3
-4,9,4,15,18,9,10,-13,-8,2,10,21,-6,15,18,-2,3
41,12,0,-9,43,7,-10,3,22,10,16,-3,24,7,14,-1,1
83,97,111,120,127,129,133,128,124,116,105,101,102,91,91,80,0
6,-5,-2,1,2,-1,3,-4,-1,-2,-6,-2,-11,6,-7,1,3
-18,-9,-17,-25,-21,-22,-37,-40,-37,-30,-21,2,14,5,2,-24,0
98,82,41,-15,-63,-78,-65,-65,-73,-82,-49,-12,25,57,80,91,0
38,-56,-132,-176,-205,-199,-162,-127,-99,-68,-15,44,92,102,46,-53,0
-4,-2,-6,14,1,-9,-2,13,-3,0,-4,7,-2,2,3,-3,3
3,-8,1,-17,-6,-2,-13,-1,8,-5,3,-13,-5,-9,3,3,1
1,23,16,-4,17,11,1,6,4,-6,18,1,11,1,13,-7,1
-1,-1,0,-5,17,-17,-4,-3,3,2,0,-1,21,-8,-6,-4,3
-5,4,3,-23,-10,9,-6,-15,-3,15,2,-23,-22,17,-7,3,1
-7,2,-3,-5,-5,-5,-4,1,-9,-9,-6,-1,-10,-9,-10,4,2
11,2,-5,2,12,-6,-1,4,7,10,-6,5,21,1,-6,1,2
-4,12,4,2,2,4,7,1,6,4,-7,4,5,-4,-5,11,1
-1,-2,6,0,-11,8,5,1,0,-7,-4,-3,-11,-7,-5,10,2
2,25,19,2,8,18,18,2,12,8,8,-6,14,1,6,1,1
2,1,-7,-40,-18,-3,-19,-3,-1,-3,-12,-20,-24,7,-11,-7,1
0,-5,3,-9,9,-11,-7,-2,-5,-1,22,-13,-6,8,7,-6,1
-8,3,8,-13,-9,11,-9,-3,-8,-3,2,2,-18,2,3,6,3
9,9,1,15,11,7,4,11,7,13,7,10,13,13,12,-2,3
-5,-4,1,-1,-4,-1,-5,0,-3,-5,-7,5,7,-10,-6,-1,2
-2,19,12,20,8,5,13,23,8,15,3,2,21,5,10,-8,3
32,11,12,38,56,70,70,72,75,69,73,76,92,100,91,41,0
-3,-7,-4,5,8,-5,3,-15,3,-18,-2,6,-8,-9,3,3,2
-14,-7,7,31,34,11,-24,-56,-76,-96,-96,-98,-90,-68,-52,-45,0
10,6,-2,-17,-12,22,0,-13,0,12,-5,-26,-13,11,-14,-3,3
151,110,34,-50,-118,-151,-165,-164,-156,-147,-126,-87,-30,23,74,111,0
6,-3,10,11,22,0,9,-6,1,6,9,6,-2,7,12,4,1
11,18,-6,-22,24,4,-11,-15,14,6,2,-17,25,0,-9,-11,3
1,-6,0,2,-21,17,4,-3,-3,-7,-3,-1,-7,-5,7,-9,2
-3,10,2,2,17,7,4,-16,-4,-7,9,13,-3,4,13,-3,3
2,-4,-1,14,14,-12,2,8,19,-14,-2,10,-2,6,1,7,2
29,3,-2,7,21,9,5,3,16,-9,11,4,30,-11,15,-13,1
1,4,7,6,-7,13,10,1,-3,9,5,2,2,11,-4,4,2
7,-12,14,-2,6,-10,6,5,24,-4,-11,-7,19,-6,-16,5,1
13,8,-11,-4,18,5,-11,-7,10,-7,-20,5,18,-16,-18,3,1
8,-2,1,23,37,-13,10,-4,10,5,0,29,36,-1,12,-3,3
3,4,-4,-13,2,-2,-9,-1,0,0,-10,9,5,3,-14,5,1
-10,4,-8,-29,-3,-19,-32,11,-8,-13,-13,4,-16,-14,-2,3,1
9,-25,-34,10,-8,-18,-23,8,30,-24,-50,-3,7,-27,-34,9,1
64,33,4,9,76,26,6,2,52,22,14,17,73,19,14,-1,1
93,55,91,132,114,50,-2,-55,-115,-156,-153,-112,-115,-37,3,-2,0
96,99,117,131,133,123,117,117,95,70,24,-11,-31,-29,-20,-13,0
-12,-3,-12,23,-8,-8,2,11,4,-15,-20,21,-4,-9,-4,7,1
6,-2,-4,-5,9,-9,-5,1,-3,-2,-1,-6,-2,-10,2,-1,2
2,0,-4,7,4,-3,-2,6,7,-7,-3,4,8,2,-5,-3,3
-8,1,-3,-13,-17,-1,-1,-4,-13,-2,-2,-6,-15,-2,-1,-5,2
2,5,9,8,-5,16,10,4,4,2,9,4,4,9,3,2,2
79,76,55,20,-12,-29,-46,-62,-41,-39,-54,-57,-29,-17,-16,-7,0
-15,-25,-4,-11,-14,-16,-8,-17,-8,-30,-11,-1,-2,-24,-10,-13,3
7,18,17,2,27,-1,5,11,7,-8,34,4,17,9,24,-12,1
-5,9,0,-5,-1,8,-4,-5,-13,-3,1,2,-13,-5,9,-3,2
6,15,1,-8,19,8,-4,-9,18,-3,-11,3,9,-1,0,0,3
11,2,1,-20,3,7,-16,0,-3,14,7,-26,9,6,-11,-11,1
8,13,11,3,1,26,11,-3,3,7,6,3,3,7,4,4,3
1,-1,-1,5,1,-6,0,9,8,-5,3,10,16,5,3,-7,3
3,-4,5,1,4,3,6,-8,-1,-11,-3,19,3,-5,7,1,3
1,-4,-1,11,12,-13,0,7,16,-18,-2,9,-3,0,3,6,2
-1,2,7,-4,-2,5,5,-4,-3,2,-1,-3,9,-7,-1,-7,2
1,2,-1,11,5,-5,-2,14,7,1,1,1,6,7,1,-3,3
-62,-68,-84,-92,-91,-81,-74,-63,-54,-44,-34,-22,-34,-65,-97,-126,0
14,13,-3,-23,21,0,-16,-3,18,12,2,-32,10,10,-14,-6,3
3,-6,7,-3,-13,10,2,0,0,1,-2,-1,-2,2,0,-2,2
-140,-123,-97,-69,-24,31,75,88,99,111,123,130,98,29,-61,-139,0
12,9,2,-4,14,5,-1,1,6,20,8,-18,19,2,-2,-4,1
1,-2,1,1,10,-4,-3,-3,2,5,-6,-3,-14,13,2,-3,2
-8,-38,-45,-35,-15,-7,-3,-2,-11,-13,-11,-12,-13,-4,11,22,0
1,-4,2,-5,-9,3,1,-2,4,-1,-3,-6,3,3,-7,-6,2
2,17,3,4,5,12,1,8,22,30,29,-20,17,42,27,-25,1
6,16,-3,6,30,2,1,-8,10,20,5,6,32,0,15,-5,3
43,18,-31,-90,-128,-143,-150,-137,-106,-58,2,52,96,115,120,117,0
2,-7,2,4,5,-3,5,-7,9,-6,-2,2,8,-9,1,3,2
7,9,7,6,2,6,2,19,7,9,6,3,11,-3,15,4,3
-23,-43,-28,-11,-30,-25,-23,-28,-35,-11,-6,-1,-48,3,-6,-1,3
9,5,-8,-5,26,-7,-7,-10,1,10,-6,26,9,4,12,6,3
17,-2,-2,1,22,-5,-3,1,9,8,2,-1,13,6,-2,1,2
79,55,28,-9,-41,-33,-47,-55,-33,-10,-6,-3,13,6,-5,21,0
-68,-66,-65,-59,-64,-66,-61,-55,-44,-41,-46,-59,-66,-66,-60,-57,0
51,92,50,113,157,139,91,74,73,87,62,47,61,85,102,118,0
15,-8,0,4,9,-1,-8,10,17,3,24,-16,7,25,11,-16,1
-11,-22,-5,-14,-54,4,-13,12,-5,-20,-9,-39,-55,12,-22,-7,3
1,0,4,2,1,4,8,-5,-2,12,0,-7,1,13,0,-10,1
-78,-61,-64,-64,-41,-12,9,15,54,75,74,66,54,22,-11,-32,0
-1,-3,1,-1,-8,0,1,3,-2,-5,-10,2,-6,-1,-7,0,3
42,22,-3,-24,-41,-51,-36,-3,28,60,80,79,54,34,3,-14,0
20,-3,-6,26,19,10,10,-2,6,-3,8,14,10,8,18,-12,1
-3,-5,-1,-6,9,-13,0,-9,-4,-6,-2,-1,-3,-6,-7,4,2
1,-2,3,0,11,-5,-1,-3,3,6,-5,-3,-14,12,5,-2,2
58,36,22,-48,32,22,19,-6,32,32,41,-53,18,35,21,-23,1
4,-1,4,3,8,3,0,-2,2,6,7,5,7,0,11,2,3
33,1,9,5,41,-1,11,-3,71,30,5,-6,46,52,8,-5,1
3,1,3,-5,11,-1,3,-11,7,2,-4,-9,11,-4,-9,-3,3
2,0,8,-15,-16,18,2,-8,1,7,15,-36,-16,12,6,-16,1
3,-6,-9,-5,-1,-3,-12,-1,-7,-11,-9,12,-2,-6,-10,3,1
49,20,8,8,64,12,14,-5,63,38,12,5,64,44,11,-2,1
-3,0,7,8,6,-3,8,1,5,-3,1,9,14,-4,5,-4,2
-12,-3,-4,-2,-14,1,-7,0,1,-2,1,4,7,-4,1,1,2
-1,0,-4,-2,0,0,-5,-2,4,-2,-5,-6,4,-1,-13,3,3
-14,-36,-48,-35,-30,-38,-59,-71,-73,-75,-68,-63,-57,-57,-45,-31,0
-4,2,6,-9,-20,12,0,3,-2,-3,3,-1,1,-7,-6,9,2
-4,4,-6,8,-12,3,4,7,6,6,0,2,4,14,-4,-1,2
-16,-9,-11,10,-8,-11,-1,-6,-26,11,4,23,-13,3,18,5,3
-6,-11,-34,25,-9,-13,-20,15,-22,-9,-34,32,-13,-24,-12,16,1
-5,8,6,17,18,9,12,-11,-8,5,11,21,-6,18,17,0,3
1,-12,-6,11,-7,-8,-1,9,-8,-7,4,6,-15,4,3,4,3
12,-7,-2,-11,-5,12,-1,-14,2,-4,5,-5,-3,1,5,-5,3
4,22,16,-6,16,15,0,5,7,-5,14,-2,13,-2,11,-7,1
-3,5,5,2,13,-3,-1,1,-1,2,9,-1,11,-2,-2,3,3
3,7,6,7,-5,15,15,-1,-6,0,6,6,-4,0,3,7,2
-7,11,-3,-26,-13,13,-8,-17,0,9,10,-30,-25,21,-4,-3,1
8,-11,-6,-11,1,-10,-7,-4,-1,-2,-6,-8,-1,-1,-11,-3,2
-51,-20,1,30,61,65,49,31,32,17,-5,-18,-15,11,53,85,0
-26,-34,-46,-57,-58,-52,-54,-73,-91,-103,-105,-104,-98,-92,-92,-90,0
5,16,-3,19,7,13,16,1,14,11,5,-11,11,9,2,-2,3
-5,4,-2,2,-1,4,-5,1,-6,-4,-2,-2,-4,-6,-2,-1,2
2,2,3,16,7,3,13,-2,2,1,4,8,12,2,-4,5,3
9,-6,13,3,12,9,7,-10,1,21,13,0,8,19,14,-7,1
47,57,72,93,95,84,49,1,-23,-34,-24,0,30,49,61,72,0
-20,-11,-3,7,-17,-7,-7,4,2,-4,-19,9,1,-17,-9,14,1
-4,-8,-4,-1,-6,-7,-6,1,3,2,-4,-8,15,-8,-8,-7,2
-32,-1,-10,13,-20,-7,-17,14,-6,24,-21,-7,14,0,-23,-1,1
-1,11,60,93,94,84,60,24,-1,-1,-14,-37,-45,-28,3,77,0
1,-9,-3,-9,10,-6,-7,-17,-9,-5,-2,2,-14,-3,11,-9,3
-1,8,4,0,1,13,7,-9,9,6,18,-17,-9,15,19,-9,1
-6,6,1,-2,-10,7,2,-1,5,-1,-3,-7,-2,0,-1,-3,2
2,7,8,-12,-1,5,11,-10,-1,-4,20,-12,-12,2,16,-3,1
53,29,10,1,-18,-39,-53,-42,-21,1,13,11,13,1,16,37,0
-12,-4,2,17,-6,-4,6,5,-9,-10,-6,2,-4,-11,-13,4,1
49,26,-4,-52,-107,-150,-168,-164,-121,-59,14,77,117,116,86,51,0
15,-3,12,-19,8,12,-2,-14,5,-8,3,-10,0,5,-7,-9,1
-6,-9,8,16,4,-6,0,-14,-20,1,42,70,92,100,83,65,0
-9,10,-2,4,-10,8,7,-2,2,8,5,1,-3,17,-1,2,2
-16,-14,-15,5,-7,-16,-3,-14,-22,3,0,30,-7,-6,19,4,3
2,-6,-5,-13,11,-11,-10,-13,-7,1,0,-12,-10,-2,-7,2,3
7,18,1,1,8,16,-2,6,24,31,22,-23,16,38,24,-24,1
-12,-1,-26,28,3,-18,-9,14,2,-16,-39,47,7,-21,-12,20,1
-9,3,16,4,6,-2,15,-5,3,-2,9,7,10,6,-3,4,1
-23,3,34,60,87,119,132,128,94,54,19,-12,-25,-37,-39,-25,0
8,16,14,-12,19,6,2,-1,1,14,20,-12,11,8,7,-4,1
4,13,3,7,-27,23,1,30,1,11,-5,-8,-4,10,-7,0,3
-14,6,-6,-11,-30,12,-1,-6,-8,-11,-6,-12,8,-34,-4,-7,2
16,-4,-8,-15,3,2,-11,-4,7,12,3,-8,-2,16,0,-1,1
-8,37,72,94,122,140,145,119,108,96,82,50,-22,-97,-140,-142,0
-21,0,-1,-6,-17,-5,-2,-3,-33,-7,-2,0,-35,-8,-1,3,2
2,-12,-20,-22,-8,-7,-23,-52,-90,-96,-78,-38,11,27,44,53,0
-58,-116,-143,-130,-108,-69,-15,14,8,-1,-3,-46,-107,-122,-135,-130,0
-3,11,7,6,-6,21,12,-7,-5,2,1,12,-10,6,6,7,2
-2,1,2,3,7,11,-2,-12,-6,6,7,8,11,-1,12,-7,3
20,8,5,17,66,-7,-4,-6,16,5,12,26,38,2,15,5,3
-118,-100,-74,-31,12,64,106,125,136,129,107,66,20,-41,-91,-132,0
46,44,30,25,26,10,-16,-23,-35,-24,9,36,33,24,32,10,0
24,-35,-92,-136,-156,-159,-142,-114,-103,-87,-77,-63,-35,21,96,146,0
14,-13,0,2,-3,12,-1,-6,8,-6,0,1,-4,10,14,-17,1
6,4,5,4,2,10,14,-7,8,8,26,-24,15,12,-3,-7,1
6,2,3,31,42,-14,21,-6,17,6,5,34,46,4,13,-2,3
2,-1,2,-10,5,-5,0,-6,0,-3,2,2,6,-9,0,4,3
-73,-116,-122,-86,-15,73,149,192,188,142,61,-13,-18,25,75,96,0
0,-3,-3,-4,13,-12,-5,-5,-2,0,8,5,0,0,8,4,3
-106,-114,-113,-115,-108,-85,-45,6,61,108,124,118,85,36,-18,-52,0
-26,12,14,-35,-33,7,5,-13,-28,4,17,-40,-35,-3,-7,-2,1
9,9,8,4,13,7,8,3,22,4,11,-8,18,13,2,-4,1
-2,1,-1,-4,-8,5,-3,1,-2,-5,-3,4,-7,-3,2,2,2
2,4,-4,-2,5,-6,1,2,-8,1,-3,-4,-5,-4,-3,-2,2
1,-9,0,1,-5,-3,-6,7,-2,-4,2,4,2,1,3,-5,3
1,6,-5,21,-3,3,13,9,8,1,0,8,8,-2,10,1,3
-76,-78,-76,-74,-81,-87,-90,-93,-80,-62,-52,-57,-68,-80,-87,-86,0
0,-5,0,1,3,-5,-5,3,-19,7,1,7,-8,0,4,-1,2
67,49,37,36,50,61,70,74,80,88,93,105,112,136,156,154,0
-15,2,-4,-1,-15,0,-5,2,-17,7,3,-1,-4,2,-2,-3,2
34,50,55,53,40,15,-10,-40,-73,-85,-81,-82,-65,-37,-3,36,0
-6,-12,-6,0,-12,-7,-4,6,17,28,37,39,50,60,58,55,0
22,2,-2,-27,-8,16,-12,-1,20,15,3,-5,30,8,-3,-2,3
-1,1,1,-1,-10,9,6,-5,5,3,-2,-2,5,8,-9,1,2
-2,11,-3,7,-10,10,11,2,5,1,1,0,6,5,-5,1,2
8,26,32,-50,5,13,12,-14,-9,25,54,-47,6,29,3,-16,1
-4,9,-13,3,-22,24,-18,11,-21,8,0,-24,-23,4,-10,-7,1
3,17,13,-14,7,4,10,-3,-11,13,12,13,2,11,21,-6,1
-34,-33,-27,-24,-27,-41,-47,-41,-26,-13,1,20,17,10,-13,-37,0
2,5,-4,13,-2,-2,10,10,5,9,0,8,15,-3,5,4,3
-4,10,3,11,17,9,8,-14,-8,-1,10,20,-5,11,18,-3,3
14,2,8,-2,6,15,11,-11,5,18,7,-24,8,4,-14,7,1
6,12,2,3,-7,27,10,-7,-2,9,0,8,3,9,-2,5,2
-10,-34,-32,-7,15,27,5,-29,-47,-42,-21,-12,12,16,-16,-60,0
-111,-83,-43,6,47,74,74,59,23,-33,-80,-128,-158,-173,-162,-144,0
-1,5,-4,0,-5,2,-2,5,0,-3,-7,0,-8,-3,-5,5,3
0,-14,-15,-13,-11,-4,-13,-14,15,-4,-8,-25,4,1,-18,-8,3
4,3,-5,-39,-18,-2,-17,-1,0,-1,-13,-18,-25,7,-12,-3,1
2,5,5,-4,0,9,-5,4,6,-7,3,9,7,-3,3,3,2
7,22,11,-12,5,19,7,-3,1,24,22,-25,5,24,7,-13,1
-18,-7,-12,17,-11,-12,6,-3,-1,-14,-32,12,3,-25,-27,15,1
19,-3,3,-11,5,22,-9,-11,15,10,-5,-22,1,4,-8,0,1
-77,-98,-84,-53,-21,10,29,40,40,39,25,23,35,45,42,18,0
15,-3,-12,15,5,-8,17,1,16,-1,2,10,16,7,26,-20,1
-2,4,12,27,9,7,21,4,9,7,7,10,31,0,6,-3,3
-5,-20,-46,-76,-121,-154,-171,-172,-153,-115,-68,-33,-5,7,10,9,0
2,3,-4,-4,-10,9,-4,2,-7,2,-3,-9,-4,-5,-9,2,2
-5,-21,-1,-5,-20,-15,-1,5,0,-22,-6,-1,-32,2,-6,7,3
-8,1,15,7,2,-1,18,-5,3,-3,5,7,10,3,-5,4,1
-10,8,1,-6,-9,1,-3,3,4,5,0,-16,14,-12,-12,3,1
6,-9,-7,-2,-1,-6,-9,4,-10,2,-2,6,-11,6,3,-2,2
-108,-120,-131,-119,-91,-70,-42,17,43,47,45,29,3,-31,-67,-96,0
-6,9,1,-4,-6,0,6,-1,1,2,12,13,-7,18,14,3,2
6,19,23,17,-2,-18,-35,-51,-72,-79,-73,-51,-12,34,67,82,0
-53,-77,-113,-115,-118,-114,-102,-66,-38,-37,-35,-57,-85,-115,-113,-130,0
4,20,0,12,41,3,14,-23,12,0,-10,26,43,-4,2,-12,3
9,0,0,9,3,7,0,8,5,-4,-2,2,-8,4,4,2,2
9,1,-1,6,1,9,-1,6,1,1,-1,4,-9,9,2,2,2
-12,-11,-16,11,-11,-8,-16,6,-8,-18,-36,28,-9,-20,-13,8,1
-7,1,-5,6,-3,-6,3,1,7,1,-2,-4,14,-10,-1,-1,2
46,59,66,68,75,87,90,86,92,88,76,65,52,57,71,83,0
12,-6,17,-8,11,14,7,-17,1,-7,0,2,4,2,-2,-8,1
35,1,-7,2,41,-9,-4,2,42,12,0,6,45,11,0,5,2
15,-1,2,-4,1,7,2,3,15,14,1,-18,14,-6,1,4,1
210,181,105,2,-106,-190,-237,-254,-248,-222,-165,-82,7,83,138,163,0
3,-5,-2,-5,-10,7,-2,-4,-1,-6,3,-1,-3,1,-3,1,2
19,33,48,-51,19,20,34,-24,20,28,48,-63,9,23,13,-12,1
-18,6,37,64,84,96,82,64,41,24,-1,-16,-22,-22,-20,-24,0
4,-4,0,-5,4,-6,-4,0,3,-10,1,-6,-4,-7,-2,0,2
5,10,3,-11,2,9,-2,-2,-3,4,-6,0,3,-4,-6,1,1
-135,-173,-185,-176,-141,-88,-11,61,120,151,139,100,41,-7,-54,-91,0
-43,-37,-37,-36,-44,-58,-74,-95,-108,-115,-106,-96,-89,-90,-100,-104,0
-31,1,-4,-7,-46,5,3,-4,-47,-13,-7,-5,-32,-30,-9,-1,2
-1,-4,-5,-9,-9,-5,2,-6,-17,8,-4,-1,-12,-5,4,0,2
22,8,1,0,8,-7,-35,-60,-69,-67,-41,-2,21,22,3,-19,0
25,-1,-2,5,9,15,2,1,13,16,10,7,22,14,11,0,1
-12,-15,-20,14,-11,-19,0,-3,2,-18,-11,-3,-12,-17,-4,4,1
-4,-4,-1,-18,-4,9,-15,-17,7,11,5,-14,-6,25,-6,-5,3
0,-2,4,19,-3,1,12,10,-5,2,1,21,0,7,10,1,3
-4,45,98,95,43,-47,-107,-168,-180,-184,-187,-183,-150,-107,-43,38,0
6,-2,-1,8,7,-10,13,2,17,10,4,0,16,9,7,-1,3
-1,-3,6,12,2,0,10,3,-3,6,5,8,14,0,2,-1,2
1,5,-7,10,-1,1,2,6,2,-17,-16,17,10,-24,-3,3,3
-3,4,5,0,-1,2,2,3,2,8,4,4,6,7,2,4,3
-64,-31,1,26,47,69,86,109,114,114,90,84,75,58,49,31,0
38,10,-13,-61,-92,-78,-60,-35,0,50,50,44,26,-6,-35,-63,0
4,0,2,1,5,3,-2,1,-3,5,3,1,5,-4,6,-1,3
6,-16,8,1,5,-13,1,7,25,-10,-19,-2,17,-9,-21,7,1
3,-2,6,-6,-6,2,-3,8,5,-3,2,-3,3,-1,1,-3,3
2,-1,1,-8,-2,-1,-10,6,-2,6,1,-7,4,2,-11,2,3
-36,-30,-25,-36,-53,-66,-60,-53,-31,-12,6,9,-3,-17,-41,-51,0
-3,-8,-1,-6,-5,-7,-8,3,-8,11,1,-6,4,-1,-1,-5,2
-12,36,67,92,130,145,125,90,66,32,3,1,13,18,37,59,0
2,3,9,4,-25,22,8,13,0,-1,-2,2,-5,4,3,-2,3
3,0,1,-6,12,-7,-5,-2,5,1,2,-2,7,2,2,-5,2
-4,8,10,-23,-10,6,1,-5,-6,16,10,-41,-11,14,-15,-8,1
-3,-5,-8,10,37,-36,-3,-4,-2,31,7,-1,9,12,6,8,3
6,7,-3,7,11,2,2,2,-3,-2,0,10,9,-9,0,4,2
7,1,-12,-8,-5,-2,-9,4,1,5,1,-4,2,2,3,-4,1
31,35,49,49,46,43,39,27,13,3,-4,-14,-27,-35,-40,-38,0
24,2,6,-6,13,6,-1,7,15,24,4,-1,29,6,3,4,3
-28,-22,-17,-9,-1,12,31,40,34,32,35,41,50,52,29,-10,0
-1,-11,-3,-2,-6,-4,-5,-2,-9,5,-1,1,6,-1,-5,-5,2
-28,-45,-63,-81,-85,-79,-71,-56,-37,-27,-17,-2,-1,-9,-21,-24,0
-177,-158,-115,-77,-27,-3,22,16,-14,-70,-117,-156,-164,-160,-141,-129,0
-1,-4,-4,5,2,-8,-4,5,5,8,-4,-1,13,-2,-3,-1,2
118,77,20,-21,-52,-65,-78,-69,-61,-60,-58,-69,-61,-56,-26,2,0
-7,8,-2,-2,3,-7,1,2,-9,2,2,2,-9,4,1,1,2
-9,-16,-2,4,-1,10,-8,-52,-70,-73,-59,-30,19,49,39,5,0
4,0,1,0,5,2,-2,1,-4,6,2,-1,5,-5,4,-1,3
69,6,0,17,74,9,8,0,56,12,7,31,75,18,5,9,1
2,16,-1,3,4,7,3,6,12,18,27,-11,11,34,18,-17,1
5,2,-1,-5,-14,14,0,2,11,-5,-6,-8,6,4,-11,-7,3
24,3,5,7,31,6,1,1,38,10,18,6,42,19,10,0,1
-31,-59,-81,-65,-31,6,26,29,8,-21,-34,-44,-49,-53,-51,-43,0
-21,-36,-71,-113,-157,-188,-175,-139,-99,-54,-19,-29,-69,-91,-115,-143,0
-6,-1,3,7,-5,8,6,-6,-17,2,2,7,-14,-2,5,5,2
6,4,-3,9,10,4,1,1,-2,11,-12,11,6,5,-4,1,1
4,16,7,-16,11,6,-5,-1,-2,6,15,-11,-1,4,5,1,1
-4,-9,-12,4,-6,0,-16,2,-12,-12,0,6,-13,-15,0,10,1
-111,-75,-79,-102,-114,-138,-157,-150,-140,-93,-39,13,19,7,10,9,0
7,-19,-30,-64,-62,-31,8,40,63,18,-43,-38,-76,-98,-95,-67,0
-4,-2,21,37,39,37,28,9,-10,-30,-51,-67,-69,-41,-10,28,0
-3,-3,-3,10,9,-6,-9,6,1,17,-11,1,4,9,-3,-2,1
36,10,-1,-12,27,12,-5,-1,28,14,1,-15,32,6,-5,-5,1
21,30,34,-47,11,20,27,-20,0,30,56,-42,18,34,5,-13,1
17,5,-6,7,19,6,4,-5,7,0,-4,16,12,-1,0,8,1
-4,1,0,10,4,-3,2,5,0,1,-9,11,0,-6,-6,15,1
20,19,35,-18,19,24,25,-12,21,13,27,-15,19,20,13,-6,1
-5,1,-6,-3,-8,1,-4,-2,2,-2,-4,2,-2,2,-6,3,3
-4,1,-1,8,1,-5,2,6,9,-14,3,1,-4,1,1,0,2
9,7,-4,8,14,2,0,3,-4,-2,-1,7,11,-10,-3,3,2
9,7,17,6,23,-3,7,12,13,-12,42,-4,15,15,27,-18,1
39,16,1,-13,42,9,-11,3,21,12,18,-5,27,8,14,-3,1
-4,4,1,-3,-9,6,2,0,-4,0,1,-3,-22,10,2,3,2
90,105,105,103,108,103,83,36,-24,-73,-91,-84,-77,-59,-19,33,0
2,-10,-10,-16,4,-10,-5,-23,0,-11,-10,-10,-8,-5,-14,-4,3
10,-3,14,3,0,5,11,7,31,6,-1,-21,17,1,0,-2,1
-40,-39,-24,-9,-5,-16,-18,-22,-10,3,7,2,-5,-11,-21,-32,0
-8,1,-7,14,-10,6,4,0,-5,-2,-13,5,7,-10,-10,-2,1
0,-5,2,-4,-3,-2,-6,5,-1,-7,-1,-5,-3,-1,-12,2,3
-4,-1,4,1,-2,-1,1,2,2,1,2,7,-9,10,6,4,2
-11,-44,-70,-43,-28,8,130,176,173,134,86,39,23,26,20,25,0
-8,6,-19,-63,-99,-140,-147,-138,-127,-104,-49,-9,-9,-31,-59,-82,0
-103,-106,-109,-109,-108,-88,-66,-61,-67,-61,-37,-15,-15,-23,-41,-56,0
52,50,-3,-57,-71,-59,-50,-37,-21,-28,-28,-15,-22,-7,57,115,0
-56,-31,-17,-10,-31,-49,-48,-25,5,20,32,10,-20,-51,-64,-67,0
4,-7,-4,-7,7,-8,-12,-2,-3,-2,3,-4,-13,5,-10,13,2
113,149,162,151,136,106,73,23,-20,-66,-100,-111,-78,-21,30,65,0
41,50,51,82,103,72,38,63,36,3,-18,-23,-36,-51,-64,-18,0
-2,-6,-2,-3,-2,-4,-6,0,4,-1,-1,-2,4,-3,-6,6,2
-102,-63,-9,47,124,183,201,167,-109,-139,-153,-128,-66,10,78,107,0
4,-7,3,-1,-3,4,-1,-2,-5,-2,1,2,-1,-2,1,-3,2
6,-1,5,2,6,1,10,-5,4,-3,0,1,3,1,-1,-1,3
-2,-5,-3,8,-6,5,5,-5,1,-6,-3,2,3,-1,-12,4,3
-2,-5,-7,-7,-21,11,-2,-9,-6,-4,4,-8,-8,-1,-7,2,3
0,-6,5,-8,10,-11,-7,-2,-6,2,23,-17,-1,8,-1,-4,1
-7,12,-5,-24,-11,13,-8,-17,1,8,10,-30,-25,22,-3,-4,1
47,61,72,73,56,26,-6,-40,-51,-54,-42,-8,40,91,120,139,0
-33,-2,-2,-13,-38,-1,-2,-9,-40,-14,-2,-5,-41,-17,-2,0,2
1,19,0,12,36,3,16,-23,8,2,-10,30,41,2,2,-15,3
4,20,5,-21,-13,17,6,-2,3,7,-13,-4,-19,10,-8,11,1
-2,3,-6,6,7,-4,-5,2,-1,1,-2,7,7,-7,3,3,2
67,32,2,11,78,24,7,3,56,20,14,19,69,22,17,1,1
0,-16,-6,2,3,-12,6,-16,3,-3,-4,-3,-2,-7,-1,2,3
60,40,25,-51,31,27,23,-8,25,32,42,-49,13,36,23,-22,1
4,3,18,6,16,-4,8,10,14,-16,44,-9,10,19,23,-18,1
3,24,27,-13,-43,-53,-61,-63,-57,-58,-38,3,52,65,50,4,0
36,4,1,9,40,4,9,-3,37,23,7,8,42,26,10,-2,1
-4,-4,4,8,4,-6,4,3,-4,-1,5,3,-3,9,-4,1,2
-1,-4,-1,8,-9,8,7,-4,3,-6,-1,2,4,0,-9,3,3
-8,2,-4,-6,-8,-1,-1,-7,-14,-1,1,-4,-20,2,1,0,2
20,12,-5,-19,-35,-47,-54,-57,-49,-41,-13,19,50,71,76,72,0
-8,6,2,26,8,-10,12,16,-6,4,-3,10,-1,-2,10,-3,3
11,7,1,4,13,0,7,2,26,2,3,12,27,-6,10,12,2
34,8,-5,26,45,4,8,7,17,20,2,11,26,3,17,5,1
-15,-8,-7,8,-6,-4,-21,8,0,-12,-16,3,-14,-18,-2,9,1
-57,-55,-53,-44,-41,-28,-29,-33,-52,-57,-63,-68,-71,-66,-61,-53,0
-49,-61,-83,-81,-73,-72,-68,-48,-38,-67,-89,-111,-113,-102,-62,-32,0
2,-1,-2,-10,-2,0,-6,-4,7,-16,-9,-3,-1,-10,-7,-4,2
-164,-186,-168,-166,-139,-94,-59,-54,-24,-27,-58,-84,-98,-84,-72,-51,0
-66,-43,-35,-30,-25,-8,9,34,65,81,87,52,-1,-55,-89,-102,0
-6,-10,2,2,-9,-3,-3,2,-24,7,4,-3,-17,0,1,-1,2
1,-1,7,-2,-4,6,6,-3,-1,-4,-5,19,7,-3,0,5,3
3,-1,4,-11,-8,7,-4,1,1,-1,-3,-6,1,-1,-1,-7,3
34,13,-12,-9,32,8,-3,-11,27,-8,2,-9,17,7,-3,-9,1
-27,-16,14,35,54,50,14,-7,-12,-9,-25,-25,-21,-30,-24,2,0
-7,-5,-3,14,7,-7,1,-1,-9,-2,-11,29,8,-8,-4,12,1
-4,1,-8,-4,-8,2,-5,-3,0,-1,-5,1,-2,2,-8,3,3
-8,-5,-6,13,5,-17,1,5,2,-13,-10,9,-5,-2,-1,-4,3
15,-26,-30,4,0,-14,-27,4,32,-32,-59,2,5,-32,-43,12,1
-3,-5,1,-12,-12,3,-8,-2,-20,7,6,-8,-12,6,-8,-2,2
-8,2,-9,6,2,-10,-1,0,0,4,-2,3,9,4,-2,-5,2
-5,7,2,3,1,6,1,-1,-9,7,-4,-1,-13,9,-6,3,2
-113,-140,-116,-82,-54,-40,-25,-14,-29,-53,-91,-137,-163,-170,-174,-166,0
-3,0,-1,-4,3,-3,-5,-2,-5,6,1,-15,-3,-5,-5,-1,3
-10,-1,-37,26,6,-8,-27,9,-12,-9,-41,35,1,-17,-24,14,1
-3,4,-4,-7,-4,0,-5,-1,-6,5,3,-3,-9,8,-4,4,2
-7,-37,-68,-71,-78,-90,-67,-31,-19,-23,-24,-40,-57,-62,-57,-45,0
2,-3,-1,-1,-12,-5,6,8,2,-8,-2,4,-5,-11,4,8,3
2,31,48,74,102,110,102,79,71,72,76,60,45,36,8,-2,0
-6,-2,0,4,-9,3,1,2,1,-9,-12,9,-4,-8,2,-2,1
-8,3,-9,4,1,-10,-1,1,-1,7,-2,0,8,5,-3,-6,2
-1,-3,-9,-6,-9,-2,-7,-2,3,-9,-9,-17,-4,-12,-16,0,3
61,16,2,3,63,10,6,4,54,34,6,-1,71,12,6,5,1
-3,-1,-1,-2,3,-3,-4,-1,-6,6,-1,-12,-3,-6,-2,-2,3
-3,11,-7,11,-16,10,10,8,3,2,-2,3,7,7,-5,-2,2
8,21,16,-19,21,7,1,-2,4,21,17,-23,15,5,5,-5,1
-8,-4,5,-3,-1,-9,4,-4,5,-11,-2,11,16,-9,-1,-3,3
-7,3,2,-11,-12,3,-4,0,-12,-3,-14,7,-13,-7,-10,8,1
0,-8,-6,-6,-1,-7,-5,-5,-1,-5,-4,-2,-3,-2,-7,-1,2
-96,-88,-92,-91,-83,-63,-57,-60,-63,-81,-91,-90,-72,-68,-70,-74,0
9,0,7,3,18,-4,6,-1,17,3,4,12,25,2,6,2,2
5,-1,2,-2,4,-1,-1,2,0,7,4,-7,6,-3,3,-1,3
-6,-5,-4,-8,-5,-8,-3,-7,-6,-8,-5,-8,-2,-16,-10,1,3
-2,-9,3,5,-2,-6,-4,8,-3,-2,0,4,12,-10,-8,5,2
-7,-4,2,-10,-12,-2,-4,0,-2,-1,3,-10,-13,9,-5,-1,2
-91,-77,-24,40,71,68,43,20,-8,-19,-24,-23,-31,-54,-70,-90,0
11,8,12,-10,18,-2,11,-5,12,1,17,3,25,-2,5,5,1
33,23,19,24,26,34,49,68,76,69,54,30,13,6,2,-1,0
-3,14,-7,8,-14,11,8,9,2,6,-1,2,7,9,-7,-1,2
3,17,-4,-6,7,9,-2,-3,3,19,7,-10,-4,15,6,2,3
-7,-10,-24,14,-3,-14,-11,3,1,-25,-28,30,1,-26,-9,12,1
38,17,11,12,26,42,54,46,21,-4,-15,-11,-1,22,35,34,0
-4,17,-10,14,0,11,10,-4,13,-20,-30,19,-9,-13,-8,12,1
28,-2,3,19,46,-10,14,-2,35,0,1,18,38,8,4,4,2
-44,-53,-68,-85,-109,-120,-128,-120,-97,-58,-22,-2,16,24,21,-2,0
-6,-21,-14,-15,-20,-8,-12,-15,14,-12,-10,-26,-5,-4,-18,-8,3
0,-1,-10,6,0,-1,-2,-2,-1,-2,0,-7,-6,3,-1,-6,3
-3,-4,8,6,-5,6,5,1,2,-3,5,4,-3,9,0,1,2
-97,-78,-62,14,77,132,155,128,110,108,41,-8,-44,-72,-104,-67,0
-6,-9,-1,-8,-11,6,-7,-12,-11,-8,4,10,-5,-4,8,-5,3
2,-2,5,-10,-9,5,-4,3,0,-1,-2,-6,0,-1,-1,-7,3
-8,-5,-2,-6,-12,3,-12,2,-3,1,-6,-8,-10,3,-8,0,2
-1,3,-4,10,6,1,0,2,-4,-4,1,6,13,-11,2,-4,2
-1,-1,3,4,17,-11,7,-8,4,-1,4,7,6,6,4,-2,2
-7,-3,6,1,10,-8,2,-8,-6,-6,-1,6,-6,-7,3,3,2
19,-13,0,-2,2,-4,3,3,48,-4,-14,-17,17,14,-15,-3,1
-7,-8,-4,0,-5,-6,-13,6,4,-14,-25,3,-13,-7,-21,8,1
15,-3,-9,21,21,-12,11,4,13,13,-3,3,18,4,2,3,3
2,2,4,-5,-7,14,0,-3,1,-1,1,-4,2,-3,2,-4,2
1,-18,-12,-2,16,-21,-3,-21,0,-7,2,9,-7,1,5,5,3
12,-9,3,-18,-3,3,-17,5,6,-9,-6,8,-3,-1,8,-4,1
73,30,2,-24,-44,-52,-61,-40,1,43,65,54,1,-35,-50,-9,0
-1,13,4,-19,-10,23,0,-17,-1,8,-6,-27,-16,6,-14,-2,3
-91,-105,-74,-14,42,62,52,35,11,7,14,21,14,-7,-31,-55,0
-14,3,2,6,-14,7,2,2,-15,-1,1,3,-11,1,0,-1,2
-30,19,17,-32,-35,14,8,-13,-24,6,18,-43,-28,-3,-10,-2,1
-1,-6,-5,-15,-1,-3,-20,-4,-7,-18,3,-6,-7,-9,-13,2,1
-17,-12,-25,20,-26,-10,-13,15,-19,-25,-34,38,-25,-23,-9,17,1
-4,-10,-13,4,-11,0,-12,0,7,-20,-22,2,-7,-5,-23,3,1
-1,9,5,4,4,10,5,-2,-1,1,0,6,7,-6,3,3,2
-24,-8,-2,11,-19,4,8,-15,-13,1,-3,-16,-24,14,-13,-7,3
1,-5,-4,6,1,-5,-5,6,6,5,0,-5,10,-3,3,-4,2
-129,-159,-169,-19,8,23,43,73,97,110,103,91,71,55,53,55,0
-4,4,5,7,-4,9,9,-2,2,-4,1,7,-5,7,2,2,2
4,-2,2,4,13,-3,1,-2,5,8,-2,0,9,5,0,-3,2
12,-11,-5,1,-1,-12,-7,16,5,-12,-8,-6,-3,-1,-11,-6,3
9,-25,-35,26,7,-12,-29,8,6,-8,-65,40,7,-16,-34,16,1
3,-8,3,-2,1,-7,2,1,4,4,2,-1,1,6,-1,3,2
144,158,137,89,25,-45,-114,-169,-205,-202,-174,-128,-85,-27,24,61,0
15,15,0,13,25,-9,9,18,9,13,-3,0,13,-4,6,4,3
-3,-3,-3,-5,-3,2,-11,-1,-3,2,6,-14,-6,6,1,-10,1
11,4,31,-17,9,3,21,-5,24,17,16,-31,22,8,-1,-4,1
-8,10,-2,2,-6,4,4,0,-6,0,4,4,-6,-4,7,5,2
-84,-135,-177,-206,-206,-189,-150,-96,-49,-13,9,19,18,20,28,27,0
66,64,51,61,64,67,91,109,104,75,36,-36,-58,-41,-48,-53,0
-20,-4,7,23,37,35,32,26,21,14,13,10,1,-6,-10,-15,0
1,11,8,9,6,13,11,-2,17,-5,2,12,12,3,9,2,2
-12,-40,-70,-88,-84,-65,-27,-2,-6,-16,-45,-70,-79,-66,-43,-31,0
95,75,40,-5,-59,-100,-107,-79,-43,-4,28,44,41,37,24,-5,0
-8,9,1,-8,-6,0,-4,4,4,5,1,-15,12,-12,-7,1,1
-45,-68,-82,-83,-69,-46,-29,-13,-11,-10,-8,-7,-11,-11,-9,-19,0
-7,7,4,12,-3,3,6,11,-1,6,-1,3,1,8,-2,1,3
14,6,-6,-2,22,3,-5,-7,3,7,-3,0,12,8,-7,-5,1
-2,-4,0,-1,-6,0,0,-1,0,4,-1,-1,-3,3,-2,4,2
23,-18,-59,-98,-126,-141,-124,-83,-38,-6,30,63,63,44,2,-30,0
-4,6,0,7,-2,7,2,2,-7,3,-3,3,-14,10,-8,8,2
24,31,37,45,55,56,51,37,15,-17,-43,-66,-82,-66,-33,5,0
2,-1,0,-9,-3,0,-10,4,-1,4,0,-7,3,1,-11,3,3
-7,-15,-8,-4,-15,-18,-3,2,-9,-24,-10,-7,-31,-11,-8,0,3
-2,12,20,-5,-7,-8,36,3,17,4,-4,1,12,-3,18,-9,1
-12,28,41,8,-28,-45,-20,19,32,11,-52,-121,-140,-107,-48,-1,0
10,16,2,7,11,10,13,0,2,5,0,10,8,-3,5,6,2
-6,8,-1,-1,5,-8,1,1,-10,3,5,4,-8,5,1,3,2
-53,-60,-67,-65,-49,-31,-12,3,3,1,5,-7,-26,-41,-45,-43,0
-18,-30,-18,-5,-10,-12,-24,-47,-48,-22,2,-1,56,157,181,137,0
2,20,-1,-27,-13,17,-25,16,-6,4,-6,-10,-8,3,-16,3,1
-65,-41,-23,-9,1,13,25,17,5,-16,-41,-76,-98,-101,-93,-78,0
8,-2,7,2,5,3,10,-2,5,9,4,-6,7,5,1,-1,3
7,14,-5,-12,6,6,-5,-3,3,19,9,-11,-7,15,8,4,3
-88,-105,-87,-42,-5,34,41,21,-7,-25,-59,-91,-91,-77,-72,-43,0
-1,-4,3,17,10,-5,6,3,1,-6,14,28,27,-1,20,-9,1
162,133,91,32,-31,-85,-120,-142,-148,-136,-93,-21,44,100,123,129,0
-4,-4,-3,-2,0,-6,-5,-1,-3,6,3,-1,5,-2,0,0,2
-2,7,6,2,2,4,3,3,3,8,6,5,6,8,3,4,3
-2,-18,-35,-56,-65,-49,-21,11,46,70,87,91,102,96,80,73,0
17,15,2,-20,-39,-68,-75,-68,-57,-57,-57,-49,-25,10,44,60,0
21,1,5,-37,4,10,-17,-7,12,-16,-4,-19,-9,-4,-8,-5,1
2,8,12,-28,-3,-3,5,-4,-9,-4,-5,14,-12,0,1,7,1
-4,8,1,-5,4,4,-5,-4,-8,10,-8,-1,8,1,-10,-5,1
11,-11,-18,-2,-12,-3,-26,20,-1,-17,-16,14,-18,6,-7,0,1
-2,4,8,1,-8,9,0,10,5,-4,-2,-3,-5,4,-2,0,3
-4,6,7,12,16,2,12,-9,-3,7,14,7,-9,19,13,1,3
4,-9,-6,-4,-1,3,-22,6,7,13,-2,-18,12,-4,-8,0,1
3,1,-1,6,13,-5,2,-1,8,-4,-5,10,18,-3,-5,-2,3
-2,-4,-10,7,6,-14,-7,5,0,2,-4,1,-6,11,-5,-2,2
9,12,-4,-16,7,4,-7,-2,5,21,10,-13,-6,16,8,4,3
7,20,16,-7,15,19,-1,4,9,-3,11,-4,15,-5,10,-6,1
-60,-57,-77,-73,-54,-20,19,51,60,35,-1,-38,-47,-40,-19,-15,0
3,6,6,10,1,4,8,13,7,4,4,8,16,10,3,-5,3
-141,-137,-127,-112,-86,-64,-43,-20,1,18,17,11,-10,-37,-55,-65,0
-34,-3,39,64,83,92,85,69,47,21,-19,-54,-83,-93,-100,-80,0
-1,8,1,8,12,-2,3,2,-5,-1,2,7,4,-3,1,1,2
16,7,17,-13,14,2,14,-4,15,13,45,-23,-2,34,38,-19,1
9,1,1,-6,-11,14,-1,2,8,-1,-5,-5,3,4,-9,-1,3
-5,-11,1,5,-9,-3,-5,6,-5,-4,4,9,-2,3,3,1,3
8,0,-5,4,11,-2,2,-3,5,-7,-1,4,15,-16,1,2,2
-4,11,-4,1,-2,7,-2,2,-4,2,4,-5,6,-11,3,-1,2
102,64,16,-29,-66,-117,-143,-133,-84,-24,44,86,108,130,150,163,0
-29,-48,-89,-144,-192,-215,-188,-127,-66,-47,-62,-78,-77,-62,-51,-55,0
-3,-2,-3,2,2,-7,-1,1,-3,9,3,-1,6,2,0,0,2
4,5,-3,-12,-18,-6,-1,-3,-6,-5,-14,-27,-27,-36,-41,-65,0
-2,2,4,7,-6,4,-3,16,-3,-4,0,5,0,1,-3,0,3
-19,-25,-14,-16,-29,-15,-13,-17,-2,-19,-10,-20,-19,-13,-10,-7,3
2,3,5,-2,5,-3,8,-2,-10,21,20,-5,1,8,21,-5,2
0,6,-3,-3,-8,5,-3,6,9,5,11,-9,8,9,8,-9,1
2,13,9,-20,1,13,-2,-8,-2,2,8,-6,5,0,0,-3,1
-6,0,7,-8,3,-4,-2,-4,-7,2,4,-1,5,-3,-2,-3,1
-1,12,-1,-3,-14,18,5,-1,11,-6,0,-2,30,-27,1,0,2
-3,3,1,-7,-8,1,-1,3,-4,12,-4,-8,-2,13,-13,-2,3
-25,-22,-36,-41,-40,-30,-10,-1,-10,-25,-30,-24,-12,3,18,13,0
69,0,-62,-87,-83,-76,-66,-52,-21,13,43,68,53,-4,-105,-218,0
3,7,-7,7,-4,7,0,6,4,-5,-11,16,12,-13,3,3,3
5,-11,-7,-9,-1,-1,-15,-6,-12,-12,4,-9,-9,-15,-6,1,1
-9,-1,-38,24,5,-7,-30,8,-13,-9,-39,33,1,-17,-25,13,1
22,2,-4,-13,11,9,-6,-6,-8,5,19,8,8,3,11,2,1
3,-1,-2,-7,6,-3,-8,-1,-2,-9,-8,-4,16,-23,-11,-4,3
-6,5,13,-2,-2,6,3,3,-4,11,2,-5,3,-3,0,3,3
12,-11,-3,5,8,-7,0,2,5,-2,-13,4,-8,0,0,1,1
4,3,-10,-18,3,0,-14,-10,22,5,-3,-30,16,3,-18,-7,3
26,-39,-101,-132,-122,-85,-37,-4,22,41,55,66,94,115,126,116,0
20,37,45,-56,17,20,28,-19,19,20,49,-68,3,16,13,-12,1
5,5,4,1,-6,14,10,-4,-1,1,3,1,-6,2,1,6,2
84,62,58,49,37,25,31,39,48,41,39,46,82,116,134,120,0
-2,-5,1,8,6,-10,8,-2,-2,6,-6,4,-12,5,5,3,3
-8,0,14,9,-2,0,19,-4,3,-4,1,7,8,2,-7,4,1
43,93,122,134,123,81,2,-105,-193,-251,-262,-240,-175,-89,-5,69,0
5,-7,-4,-2,9,-15,-6,5,5,1,-5,2,21,-8,-2,-9,3
-6,-5,8,-10,4,-8,1,-9,13,0,4,-6,6,11,-7,0,1
-12,-9,-19,14,-22,-11,-4,11,-12,-14,-26,20,-22,-26,-3,18,1
-15,-18,-9,24,44,74,101,119,146,167,179,153,104,54,24,-9,0
5,14,16,-6,-8,22,4,11,4,10,-1,1,2,10,-1,3,2
55,46,7,-48,-91,-128,-144,-157,-167,-171,-151,-106,-48,14,63,82,0
-5,2,-6,13,-7,7,3,1,-3,-4,-14,8,6,-6,-10,-2,1
26,26,21,28,38,51,55,52,42,24,12,14,17,21,30,30,0
-3,-5,-3,2,2,-4,-10,3,-20,9,4,0,-10,1,6,-3,2
0,-5,-6,0,-3,0,1,-9,0,-1,2,-12,-3,-6,-5,3,3
-70,-78,-112,-113,-69,-8,-21,-25,-34,-68,-87,-80,-78,-67,-24,2,0
13,-14,-15,22,17,-5,-11,5,5,-8,-42,42,12,-8,-18,12,1
-24,-8,-12,-35,-61,-78,-92,-82,-63,-35,-13,2,10,-4,-17,-30,0
8,0,2,-7,-8,-15,-14,-23,-22,-17,-13,-27,-40,-45,-41,-36,0
-3,-7,-6,7,0,-2,6,-12,-5,0,-1,0,-4,-5,3,2,3
38,46,38,26,15,9,14,28,40,43,45,32,9,-13,-23,-22,0
-15,-20,-2,-20,-46,5,-18,2,-10,-7,-3,-38,-45,14,-20,-7,3
56,44,37,26,20,7,14,25,46,61,82,95,113,142,145,134,0
-61,-16,6,24,29,33,30,31,34,7,-9,-34,-54,-85,-112,-121,0
9,-13,-1,-3,22,-16,1,-14,3,-7,-2,11,-5,0,9,2,3
-1,-1,2,2,2,2,5,-7,-3,-1,5,10,2,-4,8,4,3
50,47,41,-45,20,36,53,-16,35,36,46,-73,17,29,18,-19,1
-25,-24,-17,-5,-24,-19,-7,-20,-18,-16,-8,11,-20,-18,3,4,3
-2,-3,-1,-5,7,-19,-3,3,-6,-1,3,-2,-2,0,-3,-1,3
-38,-87,-114,-130,-145,-142,-113,-96,-86,-63,-28,-4,1,-16,-79,-133,0
3,-2,4,2,10,-6,2,1,11,7,-1,-4,17,3,-3,-3,2
-42,-1,13,-1,-31,-43,-49,-55,-48,-58,-14,3,8,-4,10,66,0
-59,-45,-6,43,69,85,79,53,25,16,14,20,45,68,70,56,0
-3,-4,-6,-1,-14,2,-5,2,2,5,-6,-8,-3,1,-2,-3,2
-2,17,0,13,30,2,18,-22,4,4,-11,33,38,7,3,-18,3
8,21,11,-13,6,19,5,-2,0,24,23,-26,6,23,5,-14,1
51,84,96,90,80,73,79,77,62,36,6,-9,-33,-49,-67,-78,0
11,-9,-3,5,8,-6,-2,4,-3,12,1,-6,-2,10,0,-5,2
3,-8,-1,-15,-7,-2,-11,-1,7,-7,3,-13,-6,-11,3,5,1
3,6,7,0,6,2,0,7,5,-2,2,-3,11,-12,2,1,3
-1,-8,1,1,8,-1,-8,-5,-6,-2,7,0,-8,5,-1,2,2
7,20,11,5,9,23,4,7,6,9,8,-2,6,12,1,2,3
2,17,-2,11,16,1,5,5,6,2,12,10,11,2,20,-3,1
2,-2,0,-2,-21,19,4,-5,-1,-7,-2,1,-6,0,7,-9,2
-7,-2,-3,-9,-8,-5,-8,0,-10,5,2,-7,5,-11,1,-4,2
-8,0,-4,-4,-6,0,-6,-4,-10,-4,-4,-10,-12,-9,-4,-4,2
-16,-12,-17,-1,-20,-18,-13,4,-3,-14,-25,9,-11,-17,-7,2,1
-2,-6,6,-2,-3,1,2,-3,1,0,-1,6,6,-4,2,3,3
-4,1,0,-14,-4,-7,-3,-5,-3,-2,-2,-16,0,-11,-14,3,3
-3,7,-1,0,-5,6,4,-1,-2,-3,-2,5,2,-9,-4,8,2
-12,-8,0,-3,-17,-2,-5,1,-17,5,-1,-13,-14,-3,-5,-3,2
8,4,2,3,7,4,-2,8,3,-3,-8,-1,5,-7,-6,0,3
-2,1,-2,-6,5,-3,-10,-2,-2,-11,-8,-4,11,-22,-11,-4,3
9,9,1,3,-15,21,11,4,0,14,3,-2,-7,14,0,7,3
-4,1,5,-2,-11,8,3,1,3,-3,-1,1,2,1,-9,5,3
-24,10,15,-43,-33,11,-6,-15,-21,12,2,-48,-36,7,-20,-7,1
123,170,165,96,37,-18,-79,-101,-75,-23,33,84,98,66,40,3,0
38,26,42,32,9,-3,7,13,1,-22,-53,-21,-23,-36,-43,-24,0
3,-4,-1,-3,-14,-6,4,10,2,-12,-3,-1,-7,-14,0,7,3
-3,-11,-4,-5,-5,-6,-8,-4,-5,-8,-4,-5,-10,-7,-3,-2,2
2,16,-1,10,17,1,4,5,6,-1,14,11,11,2,21,-4,1
-1,-4,1,0,-3,-3,-6,8,-4,-3,0,0,-1,1,-8,2,3
2,-3,2,15,8,-2,6,4,13,7,1,5,27,-5,3,1,2
1,-10,-9,-12,1,-7,-5,-19,-3,-8,-8,-5,-9,-4,-8,-3,3
-7,3,2,-7,0,-5,0,-5,-15,5,-3,-7,-9,-6,-1,-4,2
-2,8,1,4,-14,8,3,13,11,5,-4,-4,0,4,-2,6,3
-8,-11,-12,7,-25,-3,-2,5,-10,-4,-7,5,-18,-4,5,1,3
19,-4,-8,-5,12,-8,-8,5,19,-3,-12,-1,9,2,-8,0,1
-2,7,14,28,5,13,21,10,1,6,9,8,22,-7,8,2,3
-13,-21,-4,-18,-52,5,-18,8,-8,-12,-6,-40,-52,13,-21,-7,3
-16,-12,-13,7,-7,-13,-2,-10,-24,7,2,27,-10,-1,19,4,3
-27,-30,-23,-14,5,10,13,14,2,-16,-37,-49,-56,-45,-27,-13,0
7,12,10,0,-2,26,10,-5,3,7,5,-1,2,7,3,3,3
-3,-7,-5,-1,-1,-5,-4,-5,-2,2,0,-3,-1,-7,2,2,2
4,-12,-4,-7,6,-11,-14,0,-5,-2,1,-3,-17,8,-12,12,2
-2,1,2,3,-2,3,1,1,3,-7,0,6,10,-13,5,0,2
6,14,-2,19,24,-9,12,11,8,4,-12,7,10,-5,-5,7,3
-66,-67,-55,-39,-47,-76,-99,-119,-106,-74,-72,-89,-74,-36,-11,9,0
4,19,-8,-14,10,2,-23,12,-13,8,-3,-4,-6,-6,7,-7,1
-2,-5,-2,8,-8,7,6,-5,2,-7,-2,2,3,-1,-11,4,3
4,-1,6,4,-26,19,7,12,0,-1,0,-3,-5,5,3,-5,3
-11,2,3,1,-25,8,12,-1,-21,-9,20,-2,-31,9,19,-8,3
-1,4,2,-6,-4,4,-2,2,1,-15,-13,5,-4,-6,-9,-3,3
16,13,0,14,23,-9,8,20,8,15,-2,-1,12,-2,6,3,3
15,15,15,-15,10,18,-3,5,-2,1,7,-3,8,-11,5,0,1
81,6,-4,6,83,12,-3,-4,70,21,-2,22,85,8,9,9,1
29,39,40,28,10,-8,-15,-17,-20,-22,-23,-15,-18,-16,-24,-27,0
-57,-61,-52,-22,-7,-13,-21,-51,-70,-81,-54,-56,-60,-52,-51,-64,0
40,35,26,27,25,15,-4,-34,-50,-41,-7,24,54,71,75,66,0
-1,5,4,-4,-7,10,5,-3,-6,0,-1,-4,-2,-2,-12,4,3
2,-6,1,-2,-3,-3,-7,8,-1,0,3,-2,3,2,-4,-2,3
13,8,2,18,18,-9,9,23,5,15,-3,0,9,0,6,2,3
7,-1,2,11,15,30,23,14,1,7,23,37,47,45,27,2,0
-2,-3,-2,-1,-3,-2,-2,-1,-6,9,0,-5,-2,4,1,-5,2
57,51,54,20,-54,-143,-215,-248,-230,-178,-92,13,118,204,251,270,0
-1,-4,2,-4,-15,10,2,-4,-1,-1,-3,-7,-8,-1,6,-10,2
25,36,46,-36,21,36,37,-23,24,31,49,-39,16,33,26,-10,1
-1,-9,2,1,-5,3,-4,-1,5,0,-5,13,5,2,5,0,3
-6,1,1,-10,-13,1,-4,2,-13,-2,-13,3,-13,-7,-15,10,1
-4,1,-4,-2,-4,2,-6,-1,-15,6,-2,-10,-16,1,-3,-3,2
-33,-1,35,68,99,120,132,133,120,98,73,47,6,-35,-75,-108,0
6,17,9,2,3,22,3,6,5,7,3,-8,7,9,-6,-3,3
66,50,32,-11,-50,-69,-93,-112,-79,-13,26,52,73,55,12,-28,0
-1,-14,-2,1,-14,2,-4,1,20,19,-8,-20,2,10,13,-15,1
1,1,4,0,3,4,2,-2,3,0,-2,8,8,-8,7,3,3
2,5,5,-12,6,-5,-6,3,7,8,-16,-3,-2,4,-16,10,1
10,-1,-4,8,10,3,-9,7,-7,0,9,14,13,5,4,-5,1
5,-15,-1,-1,-1,-7,-6,1,7,-13,-1,3,9,-8,-3,-2,2
-7,-4,3,-4,-20,5,-6,8,1,-13,-6,3,-6,-4,0,-4,3
-10,5,3,-1,-1,-3,-3,5,-5,7,0,2,14,-6,-5,-1,2
-2,3,-7,-5,-12,5,1,-6,-6,-3,-1,-6,-9,-2,-2,-4,2
-3,-24,-27,-6,15,29,48,78,88,71,64,57,37,38,67,84,0
0,0,-4,-3,-1,1,-7,-1,4,-2,-4,-6,3,-1,-13,3,3
-26,4,1,-5,-30,-1,4,0,-29,-2,-3,-8,-31,-10,0,-2,2
0,-2,-11,-38,-19,-2,-21,-8,-2,-5,-9,-23,-22,6,-11,-11,1
-5,7,5,-3,-7,2,1,7,-2,14,3,-4,8,5,4,-7,2
18,27,34,26,0,-22,-39,-31,-11,2,4,6,5,6,3,-12,0
2,1,3,-3,-8,13,1,-2,0,0,1,-5,3,-2,-1,-3,2
3,0,1,0,0,-7,-5,16,3,-16,-10,-4,-3,-9,-11,-3,3
-4,-5,2,-4,-12,2,-5,5,0,-12,-11,9,-4,-2,-3,-5,3
8,4,4,-8,7,1,-4,4,1,12,1,-4,-1,16,-3,-2,3
2,9,0,-6,2,5,-1,-2,1,7,6,-11,4,6,-4,-3,3
1,1,11,9,16,-6,5,6,0,4,6,1,4,11,-2,-3,2
-1,-5,-3,-1,12,-14,-3,-5,-3,1,8,10,1,-1,10,5,3
6,2,-3,-1,16,-7,0,-4,-4,-1,-16,8,-2,-3,-7,-2,1
-3,3,4,6,6,-4,0,8,5,-3,4,0,11,-4,-2,0,2
-17,-10,15,4,-17,-10,11,9,-11,19,1,-20,-12,2,2,-3,1
13,9,36,-24,11,7,26,-9,24,22,25,-39,22,13,4,-7,1
-99,-89,-55,-38,-63,-128,-197,-230,-229,-194,-162,-144,-116,-66,-5,32,0
4,-8,-4,-14,7,-7,-11,-12,-2,0,-2,-9,-8,2,-5,-2,3
-1,-6,4,-1,-5,-4,0,5,-4,-7,4,-1,7,-8,-6,0,2
53,-4,-10,30,43,33,9,-17,24,-13,-5,41,27,0,17,2,1
9,-4,-5,-3,5,-6,-3,1,11,-8,-3,1,7,-4,-1,-1,2
-10,7,0,-6,-11,1,-1,2,4,5,-2,-16,15,-12,-17,5,1
-9,12,-2,14,13,1,19,-18,-6,2,-10,36,25,10,9,-22,3
-14,-1,5,3,6,-8,9,-13,18,24,13,8,-6,51,24,-6,1
-58,-18,16,41,42,40,29,25,20,12,-5,-53,-97,-128,-131,-111,0
26,-18,9,-8,-3,6,13,-7,18,3,-10,-11,15,14,-20,-8,1
-38,-35,-3,13,8,15,35,41,31,38,41,12,-22,-60,-88,-98,0
-16,20,10,2,0,10,4,3,-17,-1,7,9,-12,-5,13,2,2
-141,-108,-47,47,132,195,204,175,110,49,-6,-58,-93,-108,-101,-86,0
-1,-10,-9,4,13,-16,-2,-10,0,-3,-7,9,-6,7,4,-5,2
-15,7,-1,13,-5,1,18,-10,-16,-5,-3,32,4,11,15,-22,3
-1,-10,-2,7,-6,2,-1,-2,-10,-7,-1,5,-17,11,-6,-1,2
1,5,8,7,-6,14,10,3,-1,6,7,3,3,10,-1,3,2
-2,7,9,-6,-32,23,9,7,-6,-8,-1,-21,-28,11,-7,-11,3
38,18,3,-10,-14,-5,45,109,178,227,251,245,179,74,-37,-127,0
90,50,7,-59,-124,-145,-147,-130,-93,-41,9,58,86,71,56,24,0
-32,38,3,-9,-3,5,-3,2,-8,13,0,-13,7,-2,-9,-3,1
4,0,-8,-5,16,-3,-6,-17,2,-10,0,-4,7,-6,-6,-6,3
-82,-51,-14,19,9,-18,-17,-29,-33,-27,4,37,50,50,31,-5,0
2,8,9,-3,0,6,21,-11,-10,-5,6,18,0,-11,15,6,1
35,8,1,2,13,30,43,50,41,56,57,34,11,-5,5,18,0
20,32,29,5,-23,-77,-112,-139,-135,-125,-103,-66,-20,1,8,23,0
-4,11,-3,2,-3,7,-1,3,-4,3,5,-6,7,-10,3,-1,2
-51,-67,-80,-92,-102,-105,-93,-66,-49,-54,-71,-85,-91,-77,-62,-60,0
-25,-10,9,14,31,44,60,77,91,90,66,35,-4,-29,-29,-2,0
60,17,0,11,64,15,3,6,50,19,8,18,62,15,5,13,1
1,-2,1,1,10,-4,-4,-2,0,5,-6,-3,-16,12,3,-3,2
7,1,-16,-25,8,-16,-34,8,-4,8,-6,-25,0,-5,-15,-5,1
66,57,11,-27,-45,-66,-68,-38,-3,14,27,43,34,25,15,17,0
13,-19,-5,-1,-1,-9,-4,1,1,2,5,-7,4,5,-10,2,2
-2,2,-10,-4,-8,2,-4,-4,-2,0,-6,-2,-3,2,-10,3,3
23,-2,-3,9,13,9,1,4,16,18,10,14,25,19,13,1,1
0,-3,8,4,1,-4,4,8,-7,11,17,11,-11,21,21,2,2
-2,5,-6,13,5,6,2,-3,5,19,-6,12,21,10,-1,-1,1
13,11,4,4,24,0,9,1,29,12,3,4,32,13,3,1,2
12,-1,0,-7,7,5,-3,-6,14,-8,4,-9,14,-9,-4,-1,1
-96,-102,-85,-77,-75,-79,-87,-90,-80,-54,-26,-5,1,-12,-42,-72,0
17,21,20,23,30,44,34,33,20,16,26,39,51,48,39,26,0
-19,23,73,56,9,-58,-93,-96,-81,-39,2,42,64,105,114,78,0
1,-2,-4,-11,11,-10,-12,-6,-3,1,6,-8,-6,1,-2,3,3
8,17,-1,-4,7,6,-10,18,1,13,-7,-10,1,-7,-7,9,1
15,3,1,-28,1,6,-14,-4,10,-5,16,-30,-10,8,-2,-4,1
21,-7,-13,-26,-3,0,-19,-4,7,-15,-2,-9,-6,-6,-18,10,1
-22,-28,-18,-6,-23,-28,-14,-17,-20,-7,9,-2,-5,-12,-26,-52,0
7,4,9,-4,-2,8,15,-6,9,5,-5,-13,2,8,-14,0,1
3,3,1,3,4,8,-2,-1,6,-3,3,8,3,2,7,2,2
-5,2,-1,5,-17,7,5,6,-6,-1,-6,4,-5,-5,-6,8,2
4,0,3,2,6,5,-1,0,-2,7,5,3,6,-2,10,-1,3
2,-9,-7,11,0,-6,2,2,3,-7,-1,5,14,-6,-7,-1,2
-7,6,5,2,2,-3,1,6,-6,4,1,4,14,-8,-5,1,2
-1,8,-3,2,-3,6,0,4,-1,-1,-4,-2,-8,1,-3,3,3
60,76,67,52,21,-13,-33,-39,-53,-51,-23,-4,-13,-40,-72,-118,0
-143,-114,-59,-27,-25,-47,-57,-85,-120,-152,-153,-143,-127,-90,-67,-71,0
-4,7,-18,-15,-13,8,-30,5,7,2,-22,-6,-3,-4,-21,9,1
28,24,39,53,82,105,110,104,99,90,78,68,57,47,26,16,0
-13,-24,-13,-16,-26,-12,-13,-16,9,-17,-11,-24,-12,-9,-14,-8,3
-6,-15,-9,-5,-23,-13,-2,4,-8,-24,-9,-11,-35,-5,-12,0,3
-9,-5,-9,-9,-11,-12,-5,-3,-11,-12,-23,7,-18,-9,-18,6,1
0,5,5,-3,-3,-3,17,-4,-3,-6,-10,15,1,7,-8,-2,1
-2,22,12,-4,-6,15,13,6,2,12,5,-4,5,6,4,2,2
-124,-148,-152,-140,-117,-95,-72,-63,-43,-18,2,6,-11,-42,-85,-117,0
10,-4,3,-28,-16,18,-13,-8,-1,9,7,-13,-13,12,-1,5,3
-4,-2,-3,-7,-11,-3,-6,4,-4,1,-3,-7,-12,3,-4,1,3
7,-13,-5,-7,-6,-8,-9,4,-13,16,1,-20,-6,-3,-3,-4,1
-7,-19,-7,-4,-7,-13,0,-16,-5,-5,-3,-22,-13,-7,-16,0,3
-7,12,15,-10,-25,23,13,-1,-18,12,8,-22,-19,12,-3,-10,3
-5,12,-26,24,-1,5,-1,2,10,-16,-39,26,-9,-11,-12,12,1
15,39,55,85,91,101,96,94,83,80,87,88,81,54,25,6,0
8,-3,-3,1,2,4,1,-3,9,2,5,-3,-9,18,-8,12,2
0,-2,-2,17,17,-19,5,9,-2,4,6,1,-6,8,3,3,3
4,-4,-2,-4,-3,0,1,-2,-5,-3,-1,-3,-6,-3,-2,-1,2
57,50,36,-51,23,35,47,-13,30,41,45,-69,17,32,20,-22,1
-2,-9,2,3,-13,6,3,-3,-3,-8,-3,5,-9,-1,6,-5,2
2,5,-2,-7,-3,6,-5,1,-8,5,3,-7,-4,2,-3,-2,2
9,2,2,-6,-9,14,0,2,9,-1,-3,-4,2,4,-7,1,3
-2,-16,-5,3,-16,0,-7,2,18,16,-10,-17,2,7,10,-13,1
5,22,-12,7,1,9,10,3,4,-6,-7,9,-2,-6,-2,9,1
-61,-50,-30,-8,10,34,44,45,40,42,40,36,31,26,20,12,0
0,8,8,-8,-2,9,-2,3,1,6,11,-12,-8,13,1,1,3
-1,-8,-4,-1,3,-11,-9,2,-13,3,0,2,-5,-6,2,0,2
2,-9,-16,6,4,-19,-11,9,5,-16,-30,6,0,-30,-23,17,1
1,-2,0,-2,-14,6,3,2,1,-8,3,3,-9,5,1,2,2
-1,7,-1,9,6,7,7,-5,-1,26,0,-13,7,9,3,-7,1
-93,-122,-153,-174,-186,-178,-132,-94,-84,-53,-12,-5,-38,-64,-94,-115,0
3,1,-3,5,6,-2,0,3,5,0,-5,5,4,-6,1,5,2
-144,-146,-140,-134,-113,-67,-25,6,13,11,-8,-28,-37,-53,-63,-83,0
-72,-75,-63,-51,-34,-15,35,69,98,90,56,-11,-63,-117,-168,-190,0
8,-4,3,2,9,-4,7,-2,0,-3,4,6,2,-10,9,6,2
-4,3,1,7,6,-7,1,7,4,-1,-4,5,8,1,2,-6,3
-6,-8,-8,1,-9,-3,-12,3,6,-17,-24,3,-9,-6,-23,5,1
8,-8,1,2,5,-8,0,6,9,0,-1,-4,2,-1,3,1,2
43,34,3,-31,-57,-70,-67,-43,-21,5,33,38,29,8,7,10,0
-2,1,10,7,-6,9,2,11,-3,10,2,2,2,9,-1,1,3
-6,0,-6,2,17,-24,-4,1,-8,18,14,6,-5,11,22,2,3
-6,14,16,5,0,14,16,-1,2,6,13,3,1,15,8,-1,1
-25,-1,32,54,45,32,21,12,24,34,47,45,26,22,35,24,0
-16,12,-2,-2,-6,-2,-7,6,-15,8,1,-5,-17,10,-3,-1,2
80,7,-5,2,82,11,-5,-4,69,23,-2,19,83,8,10,8,1
-2,-5,1,-15,-16,6,-8,-3,0,3,0,-6,5,-5,-1,-1,2
-5,4,5,-20,-14,1,-2,-1,-1,-7,2,3,-7,1,3,1,1
3,0,0,1,6,-2,4,-4,-1,-2,0,3,4,-2,-1,0,3
9,15,-3,5,31,1,1,-7,10,11,6,17,30,-4,23,-4,3
-6,-1,0,-9,-13,-2,-3,3,-13,-2,-12,0,-14,-7,-16,10,1
28,2,21,-19,36,-2,-2,0,24,6,6,-4,34,-9,9,-3,1
12,11,-5,-22,18,-1,-17,-4,18,11,1,-31,13,8,-14,-7,3
-11,-43,-73,-101,-105,-77,-32,22,72,106,123,128,115,76,32,-3,0
-2,5,-3,-11,-4,3,-3,-7,-1,2,2,-14,0,1,-9,-2,3
24,4,-3,4,34,-5,-5,4,45,-1,-5,5,42,4,-5,3,2
64,22,-22,-48,-52,-39,-22,-5,-2,4,23,60,88,98,91,68,0
0,-3,1,1,8,-8,3,-3,-2,11,-2,2,-9,8,9,1,3
-10,-13,-30,26,-15,-10,-19,17,-22,-13,-36,39,-15,-24,-10,17,1
0,-3,-10,19,22,-10,4,-11,-13,-7,-2,39,7,-14,13,11,3
-83,-82,-60,-46,-28,3,17,2,-17,-48,-93,-120,-116,-85,-31,39,0
-117,-126,-61,4,26,90,75,49,-1,-48,-83,-67,-57,-28,15,30,0
2,7,2,-6,9,-4,2,-1,9,-14,2,-2,-9,1,5,-2,2
-5,-3,-11,-2,-3,-2,-4,-12,-5,-8,-7,-3,-3,-12,-8,2,3
31,3,5,-1,39,-2,1,-1,52,1,-2,0,49,-4,6,0,2
6,9,8,4,5,6,2,13,3,7,5,1,10,-7,8,4,3
5,-1,3,-3,3,-1,0,2,2,7,5,-9,7,-2,1,-2,3
-16,-29,-7,4,-4,0,-23,-68,-82,-73,-72,-72,-34,2,19,35,0
3,8,-6,24,2,6,16,5,11,-3,-2,5,5,-2,10,-3,3
9,-4,1,8,6,-3,1,9,10,-6,-3,-2,-2,-4,5,2,2
-57,-26,-37,-80,-101,-118,-124,-94,-42,-8,6,25,19,-7,-35,-57,0
1,18,39,66,82,80,60,33,9,-26,-50,-59,-55,-44,-28,-15,0
-130,-157,-145,-121,-79,-31,-14,-30,-62,-114,-144,-138,-123,-115,-94,-48,0
2,9,2,-18,-30,-37,-33,-47,-46,-36,-20,0,26,49,58,51,0
-3,-8,-1,-3,-1,-10,-1,-2,4,-5,-4,-2,4,-4,-8,1,2
7,-7,-1,-1,4,-3,-2,-1,2,2,-2,3,10,-7,2,1,2
13,-12,2,5,0,-3,8,3,37,-3,-18,-7,16,9,-10,-5,1
32,-7,2,11,35,-7,2,7,47,14,6,12,49,23,4,3,2
-2,4,-1,1,10,-4,-2,-2,6,-1,-4,7,1,4,2,2,2
1,11,-4,-17,-17,13,-26,20,-5,2,-7,-6,-1,-3,-13,2,1
14,-4,14,-16,9,13,1,-15,3,-8,2,-7,1,5,-6,-9,1
-2,-10,-10,1,-8,1,-1,-13,-6,-2,5,-5,0,-2,-8,2,3
-1,0,-1,-4,-4,1,-3,-1,2,-11,-5,-1,-8,-2,-5,1,2
11,0,4,-3,-10,16,4,3,6,6,6,-7,3,9,-1,-1,3
1,-1,2,-3,-5,7,5,-8,-7,-1,2,1,-13,3,7,-3,2
50,55,40,27,5,-3,5,15,36,59,87,95,95,84,68,33,0
86,69,41,33,8,-16,-15,-3,15,25,48,36,-6,-14,-2,6,0
-18,-17,4,-2,-17,-11,-7,4,19,-17,-26,-3,3,-13,-20,4,1
0,10,-3,2,6,-2,-3,7,-1,10,1,-9,4,3,-8,1,3
-4,-2,6,7,7,-8,7,1,-2,13,-11,-2,0,9,2,-12,1
7,-3,2,-2,8,-1,-3,1,0,-3,5,-1,-4,3,2,-1,2
-5,0,1,4,7,-11,-4,7,0,2,-4,4,6,-8,1,4,2
-32,-43,-38,-59,-97,-104,-69,-28,23,90,106,61,18,-6,-57,-110,0
8,-5,-4,6,7,-7,1,5,4,-5,1,7,5,-6,7,0,2
145,76,-28,-156,-240,-277,-277,-260,-220,-155,-88,-9,73,129,150,111,0
23,33,27,11,0,-5,1,4,-11,-34,-50,-46,-39,-28,-11,2,0
-6,4,0,-3,-10,6,1,-2,7,-2,-3,-5,1,-2,-1,-2,2
1,0,-1,2,6,-5,1,0,-16,-3,-2,2,-11,-4,-6,1,2
34,11,0,-4,27,14,-1,0,22,8,0,-12,38,-12,5,-11,1
1,-1,1,2,3,11,-3,-9,-13,8,6,9,5,-1,11,-6,3
-4,-5,4,3,-9,-1,2,5,10,-4,3,-4,-3,10,2,-3,2
-1,-12,-12,0,-5,-12,-2,-5,-5,-4,-6,7,-5,2,1,-7,3
2,2,2,9,-2,2,0,14,0,4,2,-1,2,0,-3,6,3
35,30,30,35,31,13,-8,-25,-39,-39,-24,-6,5,23,25,18,0
0,-4,3,0,-12,8,0,2,-2,-1,-2,-4,2,-4,-3,-4,2
-8,4,3,-5,-26,10,10,-1,-17,-3,21,-11,-30,10,15,-5,3
-5,-10,-4,6,8,-16,0,-5,-5,-3,7,19,3,-4,13,6,3
-88,-90,-82,-83,-83,-55,-9,39,67,91,103,99,89,67,27,-6,0
53,21,-6,-17,-14,-4,-4,-13,-40,-51,-39,-7,28,60,74,63,0
-1,1,5,3,-2,6,2,2,-5,8,2,3,5,3,0,1,2
12,10,4,-18,9,8,-1,-8,6,19,10,-6,16,20,4,-10,1
-25,-30,-21,30,-26,-9,-18,7,2,-21,-47,36,-7,-12,-27,17,1
5,13,10,4,13,6,1,12,-21,13,11,4,-9,7,5,5,3
-8,1,-11,-6,-3,-17,-9,5,6,1,9,-29,-1,-6,-6,-1,1
-134,-99,-74,-62,-50,-24,-3,20,31,22,-10,-52,-98,-141,-166,-170,0
8,-4,-36,-66,-77,-73,-55,-44,-31,-41,-50,-47,-34,-21,-5,-13,0
40,61,69,62,36,-1,-28,-51,-70,-72,-64,-53,-48,-30,-2,28,0
-1,40,19,10,-12,25,11,44,6,17,1,-7,6,4,1,6,3
-144,-167,-169,-147,-114,-74,-25,30,83,113,126,105,55,-5,-54,-99,0
14,30,22,-8,-35,-60,-77,-74,-11,42,85,153,174,148,102,68,0
7,13,1,5,31,1,3,-9,13,4,8,22,32,-5,24,-3,3
-2,3,7,1,-8,8,1,8,2,-5,-4,-2,-7,1,-2,0,3
-9,-3,3,-3,-5,-3,-5,1,5,-4,-1,-2,-4,0,0,2,2
69,15,5,11,70,20,5,5,52,23,12,10,65,18,5,10,1
13,-3,-4,10,15,1,-6,7,-4,1,10,16,16,5,6,-6,1
4,33,43,30,2,-29,-54,-50,-41,-19,-1,18,48,69,103,106,0
4,-3,-5,-7,7,-10,-8,1,1,-4,-2,-8,1,-12,0,-3,2
8,-5,3,8,24,1,-6,-4,-1,-2,-20,10,13,-9,-24,8,1
-3,-8,1,-13,-14,-1,-1,-8,5,-20,-3,-11,-11,-5,-25,11,1
-2,-1,12,-5,4,3,5,-7,0,-2,8,-14,-1,3,-2,-8,1
4,-6,-3,8,8,8,-16,2,5,7,-11,-2,10,0,-12,1,1
120,107,100,92,86,66,46,22,-8,-22,-36,-37,-4,30,71,87,0
13,-4,-25,-38,-50,-54,-49,-59,-68,-83,-94,-91,-62,-19,15,32,0
-57,-59,-63,-71,-80,-80,-72,-71,-73,-78,-83,-89,-87,-86,-81,-69,0
32,41,42,26,12,-5,-4,18,28,35,40,43,57,77,82,85,0
1,12,-2,0,-1,8,-4,8,3,4,-3,-2,2,-1,-5,5,3
-9,-5,6,19,23,24,20,16,14,24,20,14,6,-5,-12,-13,0
43,56,46,41,44,43,36,29,7,1,14,14,0,-8,-9,-13,0
-175,-162,-144,-128,-93,-73,-60,-54,-68,-107,-148,-145,-119,-112,-107,-111,0
13,-5,15,-12,10,14,4,-16,2,-7,1,-2,2,4,-4,-9,1
25,-3,-2,6,26,-2,2,1,12,6,6,10,29,13,-6,0,1
-9,1,-2,5,-18,6,6,1,20,-7,-6,-2,16,-6,-6,1,2
-2,-6,-2,-5,7,-11,-4,-8,0,-5,-5,-2,3,-5,-11,2,2
27,-4,-9,-18,-3,12,-8,-4,-9,6,-9,8,-12,0,0,8,3
-6,13,12,4,-1,16,17,-9,-5,14,7,-19,-11,20,0,-12,1
8,7,10,-6,-5,16,14,-9,-6,8,9,3,-8,16,7,-3,1
-10,1,-1,-1,-8,1,-4,1,-6,-2,0,-11,-13,-1,-2,-3,2
7,-6,-1,4,4,-2,-1,3,3,2,0,5,11,-6,2,3,2
-66,-58,-37,-9,20,36,57,68,59,41,18,1,-20,-40,-67,-100,0
7,12,14,13,23,20,2,-11,-19,-44,-76,-74,-67,-55,-11,32,0
34,-3,-18,-4,25,-1,-18,4,17,0,-4,-7,11,6,-8,-3,1
-8,2,-3,-14,-16,-2,1,-6,-11,-1,-2,-7,-12,-1,-1,-5,2
46,7,-5,14,52,5,3,2,41,19,0,24,49,18,8,9,1
2,3,3,1,-6,11,4,0,1,1,-1,0,-6,-2,5,5,2
-4,4,2,5,-2,2,7,0,2,2,-7,7,2,5,1,-4,3
0,-4,-2,-7,-7,2,-3,-4,-3,-4,-4,-2,-3,-10,3,-2,3
-11,-12,-1,-3,-10,-3,-15,2,10,-6,10,-13,-6,3,4,1,1
-33,2,-2,-15,-45,7,0,-10,-46,-4,-4,-14,-39,-15,-8,-5,2
-14,-20,-5,1,-34,-6,1,1,-10,-3,-12,-15,-23,9,-17,-8,3
2,-2,-1,-8,-17,15,-4,-4,1,-1,1,-15,-4,1,0,-11,2
-49,-52,-56,-61,-55,-59,-65,-73,-79,-94,-102,-105,-102,-79,-55,-39,0
-1,3,-11,-6,-15,6,-8,2,2,-4,-6,-5,-7,-5,2,-2,2
-4,-2,-2,4,-6,1,-1,1,-4,2,-2,-1,2,-7,6,-5,3
-55,-22,1,17,26,23,11,2,10,23,41,44,24,-6,-36,-46,0
0,-4,5,-9,-11,6,-5,2,-3,3,-6,-4,-3,2,-5,-5,2
5,0,-9,-7,16,-6,-13,-8,1,-6,3,-4,9,-7,-10,3,3
3,16,5,8,10,3,6,13,13,11,0,1,20,-3,6,2,3
-2,2,9,1,-18,12,6,10,1,1,6,5,5,-2,0,9,2
-3,-7,-4,9,3,-15,-1,10,3,-9,-9,3,-1,0,-8,-4,3
-88,-131,-146,-144,-137,-128,-111,-74,-34,12,52,73,72,54,32,-11,0
8,10,-13,-3,28,-7,-9,-10,5,2,2,-4,18,-1,-6,-6,3
-106,-94,-78,-58,-35,-35,-35,-37,-39,-52,-63,-66,-79,-81,-83,-87,0
2,-5,2,-4,-2,-3,-8,8,-1,3,2,-4,4,3,-7,0,3
-195,-221,-220,-194,-152,-125,-113,-104,-82,-47,14,67,109,129,126,92,0
1,1,3,9,-2,9,1,6,9,1,5,9,6,10,1,7,2
-2,17,3,4,0,10,15,-2,7,-4,5,0,3,3,0,2,2
-128,-110,-94,-38,25,40,28,9,-13,-41,-65,-45,-2,32,56,58,0
12,-5,-4,-4,7,-1,-8,2,-6,13,-2,-9,0,4,-9,1,1
-12,-16,0,6,-52,-1,2,29,-3,-26,-14,-21,-39,-5,-14,-7,3
-164,-178,-157,-149,-151,-131,-103,-105,-101,-79,-54,-38,-17,10,3,4,0
-1,-3,0,3,-5,2,0,2,4,-9,-16,8,-4,-14,4,0,1
-1,-24,-38,-44,-32,-16,-9,3,-4,-22,-39,-45,-29,-6,28,41,0
2,11,4,0,-7,17,3,4,13,-4,-3,-8,10,5,-10,-6,3
-11,-10,-26,5,-30,-14,-10,12,-12,-23,-37,18,-28,-24,-11,10,1
7,47,20,-40,3,38,11,-16,1,13,34,-45,-2,22,14,-31,1
-4,-1,-4,1,-4,-2,0,-2,6,-10,2,-2,-7,-1,6,-3,2
6,20,-2,11,43,3,11,-23,15,-3,-10,22,42,-10,2,-9,3
7,-9,-5,-4,9,-17,-7,4,3,2,-5,1,23,-9,-3,-10,3
2,-8,-3,8,0,-9,1,7,-4,-2,1,4,-3,4,-1,-1,3
0,5,-2,-5,-8,4,1,1,10,0,1,-5,0,4,-3,6,2
7,-10,-29,-52,-87,-133,-160,-158,-108,-71,-17,15,0,-17,-22,-68,0
-21,-9,-7,-8,-15,-14,-13,-3,13,-12,-7,-16,6,-16,-16,2,1
1,-6,3,7,7,-7,3,2,21,-3,-3,-1,19,-1,-3,-1,2
-8,-5,-4,-8,-13,-7,-4,-2,4,-14,-3,-4,-4,-6,-1,-7,2
-9,9,-5,-3,0,-3,-9,4,-13,2,0,0,-16,8,-3,0,2
-6,4,-5,-9,-10,0,-6,0,-2,4,1,-8,-6,3,-5,2,2
0,-2,3,18,-5,1,12,11,-4,-1,-1,20,1,5,8,2,3
7,8,-2,-6,24,-4,-8,-6,2,22,-3,21,20,10,12,1,3
3,3,0,-4,0,-1,0,3,-3,-7,1,-1,-4,-5,0,-1,2
-9,-14,-8,-4,-13,-11,-11,0,-7,2,-13,-7,-7,-5,-4,-10,2
-5,31,70,93,91,69,48,42,49,47,28,-1,-33,-54,-52,-26,0
-4,3,3,-1,-3,0,1,2,1,8,3,4,5,6,2,3,3
-51,-86,-109,-92,-60,-60,-75,-84,-89,-83,-54,-44,-50,-37,-15,-9,0
-24,-11,6,30,41,46,46,38,27,23,19,18,26,46,52,36,0
-41,-18,-8,29,3,-31,21,-31,-29,-55,-16,65,8,-54,13,-3,3
-4,9,-7,4,-4,-3,1,7,-8,1,3,-1,-1,-6,4,-3,2
-4,0,1,-7,6,-7,-6,-4,-3,-2,-1,-6,8,-12,1,-8,2
-1,-6,2,-1,14,-17,-5,2,-2,-3,4,-6,-5,2,2,-5,2
96,71,34,3,-27,-58,-77,-67,-27,23,68,97,107,111,97,80,0
-1,8,2,5,-15,7,4,17,9,7,-2,-5,-4,6,1,6,3
-5,-19,-6,1,-3,-13,3,-16,-4,-4,-4,-15,-9,-8,-12,2,3
14,-8,-6,-21,-3,-3,-9,-5,3,-10,-5,-11,-9,1,-23,9,1
-77,-70,-64,-41,-5,8,5,1,-12,-37,-9,13,-21,-30,-15,-1,0
1,-4,1,19,32,47,39,20,1,-5,-10,-12,-7,-4,9,6,0
6,-5,2,1,0,2,3,-2,0,3,0,2,-1,-1,4,3,2
17,0,-1,2,14,2,-5,7,3,5,-10,19,13,-7,3,9,1
-64,-68,-70,-80,-95,-95,-73,-59,-62,-61,-56,-77,-117,-122,-115,-125,0
2,1,4,3,-4,7,4,3,-2,7,5,4,4,6,-1,4,3
11,-3,7,21,29,-6,15,-2,8,1,6,29,15,12,7,10,2
-20,-102,-190,-257,-262,-212,-108,-4,78,127,150,151,122,75,29,-31,0
1,-5,-6,-12,-19,-3,0,-1,-8,-4,-5,-4,-12,-6,-2,0,2
7,10,-4,-4,17,5,-3,-10,16,-5,-11,5,6,-2,0,1,3
39,24,8,9,51,25,9,-5,45,23,10,6,52,24,9,0,1
62,21,4,14,70,19,8,4,53,18,13,13,66,22,2,8,1
19,9,2,-13,32,0,-8,-6,17,32,4,-15,24,12,2,-1,3
0,-1,5,19,-2,2,12,10,-5,4,2,22,0,10,13,1,3
-1,5,-7,3,-5,6,-4,3,5,-3,3,-6,6,-9,4,-2,2
2,1,-3,0,-9,7,2,1,-6,3,-7,0,-5,-1,-5,1,2
104,32,26,11,-8,-3,26,43,31,56,73,-1,-25,-35,-81,-137,0
4,0,-4,-4,-7,8,-3,-3,0,-6,3,-3,-1,0,-5,-1,2
-7,7,0,8,-7,11,5,-1,-6,14,3,2,-4,10,6,1,2
9,17,0,15,24,-8,11,13,11,5,-8,4,11,-5,-1,6,3
-5,4,-5,1,6,-9,-2,0,-11,-3,2,5,-6,4,-8,3,2
0,11,3,6,11,4,8,-2,-9,3,10,1,-5,5,-1,5,2
32,17,-9,-17,-12,6,28,50,76,86,91,88,80,63,49,44,0
0,-5,6,1,-5,5,6,-3,-2,-3,-5,22,6,-5,8,3,3
-1,4,6,-16,-8,11,-6,-4,-4,12,-3,-14,-6,-3,-3,4,3
-57,-70,-78,-70,-74,-69,-59,-52,-83,-100,-84,-86,-104,-115,-102,-105,0
-4,2,2,3,8,10,-1,-14,-5,6,7,8,12,-2,12,-6,3
-5,-2,5,0,-3,-1,1,2,0,5,1,5,-7,8,5,4,2
10,-3,-5,18,16,-10,12,3,16,16,2,1,19,8,3,3,3
138,139,126,114,92,79,65,49,41,53,77,73,55,33,32,50,0
1,6,-5,18,-4,2,12,10,6,6,0,9,11,-2,9,3,3
1,-12,-1,-5,-5,0,-9,-4,-2,-6,-8,13,-2,-5,7,-2,3
6,18,20,4,15,14,15,3,11,9,9,1,17,2,9,2,1
10,-3,9,6,28,-4,5,-6,8,11,6,10,9,10,11,6,3
6,3,-15,2,-1,0,-5,2,-1,-14,-14,15,-2,-12,-7,8,1
-1,2,-4,-3,2,-1,-1,-6,-7,-2,2,-4,-5,-4,-1,0,2
43,20,-5,-23,-21,-22,-4,25,27,23,11,-16,-47,-53,-41,-12,0
-13,11,-7,2,-9,-6,7,0,-13,-4,0,-5,-13,-10,7,-5,2
3,4,7,-8,11,1,2,-8,5,0,4,6,11,-5,5,5,3
-1,13,4,8,-15,20,11,8,-1,2,3,-2,-6,2,-1,7,3
-244,-211,-153,-90,-22,30,73,102,116,103,48,-20,-97,-160,-186,-173,0
-8,-13,-23,15,-8,-12,-11,2,-4,-26,-28,22,-11,-26,-11,14,1
11,-16,-38,-56,-61,-72,-72,-71,-67,-51,-27,4,28,43,34,19,0
0,12,4,0,11,4,4,-4,-8,4,10,-2,-6,7,-1,4,2
1,3,5,-2,8,0,-1,0,10,-3,3,-3,7,3,-1,-3,2
4,1,0,5,-5,14,6,-6,-3,13,1,-25,-9,11,-5,-12,1
4,-3,2,-4,-3,7,9,-14,-11,13,10,-22,-22,14,4,-7,1
9,9,14,-6,-3,18,16,-3,29,6,6,-28,19,-5,1,-1,1
-114,-107,-73,-25,13,31,23,10,-24,-43,-60,-72,-84,-99,-96,-100,0
-1,-9,-9,-4,3,-6,-9,-11,0,-4,1,-2,2,-1,-2,-4,3
1,-7,-11,2,3,-12,-8,2,-4,-12,-18,11,-6,-18,-6,6,1
-49,-32,-14,-6,-8,-30,-47,-57,-53,-41,-18,6,18,30,33,32,0
-6,14,7,-18,0,6,-10,2,1,-8,-2,-3,-3,-2,-3,-5,1
9,-1,7,-14,1,16,-7,-9,0,3,7,1,5,11,5,-9,1
5,-10,-7,-9,0,-8,-7,-5,-1,-2,-5,-6,-2,0,-9,-2,2
-4,-8,-5,6,8,-7,1,-13,-3,-2,4,13,2,4,7,-2,3
-5,16,1,-1,-2,7,6,-1,7,-1,4,-3,-5,8,2,2,2
-3,11,-12,4,-22,27,-13,8,-22,9,2,-23,-21,4,-7,-9,1
21,8,-58,-55,-49,-14,56,77,104,102,68,15,-28,-102,-166,-149,0
6,-5,0,7,3,-1,-1,7,4,1,2,8,13,-4,2,5,2
-58,-67,-69,-54,-59,-82,-94,-92,-99,-99,-73,-55,-70,-81,-85,-112,0
7,11,19,-13,5,14,3,0,3,13,7,-9,4,5,4,1,3
8,-2,6,2,5,3,10,-3,5,6,3,-4,7,4,1,-2,3
-3,15,9,4,-19,17,6,19,0,-8,8,-16,-4,-11,2,-3,3
-4,5,-1,9,3,-6,7,5,-4,10,4,0,5,4,0,1,2
5,-5,-11,-20,4,-8,-8,-19,3,-12,-4,-10,-14,-12,-4,7,3
-3,5,-2,-7,-14,6,3,-1,-1,10,2,-14,3,-1,-2,-4,2
3,6,8,6,-3,5,2,20,10,6,6,4,9,-1,16,3,3
-2,39,91,118,87,39,10,-15,-37,-33,-38,-59,-44,28,73,61,0
28,1,0,6,40,-7,2,0,54,14,-6,9,54,5,2,10,2
-11,-20,-2,-1,-57,0,-2,25,-4,-27,-14,-29,-48,1,-18,-8,3
11,5,4,16,14,9,10,3,11,9,0,6,12,1,13,0,1
4,-2,4,-12,0,-3,-10,7,-6,7,4,-28,-23,14,-17,3,3
40,9,2,9,34,13,7,6,31,15,6,20,41,16,10,6,1
4,1,1,4,5,3,-5,7,0,-5,-3,16,-4,-1,5,9,1
2,15,-1,9,17,2,3,4,6,-2,16,10,12,3,20,-5,1
1,6,-1,7,0,5,7,0,2,9,1,-1,1,8,-5,6,3
-7,10,10,-13,-25,17,10,-2,-14,6,8,-15,-16,9,0,-8,3
7,1,8,10,1,13,26,-14,11,-9,24,-6,8,3,14,-4,1
193,216,160,92,9,-72,-123,-153,-176,-171,-115,-66,-10,40,72,38,0
-3,17,-2,8,-2,9,10,3,-1,2,0,1,5,-8,3,2,2
-3,-11,-15,6,-11,1,-12,-1,8,-20,-20,1,-6,-4,-23,2,1
1,7,6,3,-2,6,14,-3,3,17,8,-3,-8,17,17,-1,2
-22,-19,-5,-2,-12,-28,-45,-54,-46,-21,-1,18,34,54,58,59,0
46,53,55,51,40,33,29,24,8,3,-5,-15,-30,-41,-40,-35,0
4,-5,9,0,-10,15,5,-1,-1,2,4,2,-4,8,6,-3,2
8,0,6,-21,23,6,-4,-31,15,46,23,-24,32,22,3,3,3
0,6,1,0,-3,5,-2,6,-1,-2,0,4,3,-1,3,-3,2
-67,-76,-68,-41,-1,31,68,69,56,35,26,19,17,29,40,44,0
-12,-27,-29,-13,-7,-5,-3,-25,-40,-23,-9,-11,-3,12,28,8,0
-108,-184,-220,-221,-191,-147,-90,-36,31,95,124,121,66,7,-59,-112,0
2,1,-10,12,1,-4,3,6,3,-23,-19,15,9,-28,-12,7,3
-5,6,-7,20,7,-7,8,6,-3,4,-6,8,-1,-1,5,0,3
-2,-4,6,-11,-9,5,-6,-1,-4,-1,0,-4,-6,-7,4,-1,3
14,1,11,23,-1,-34,-66,-96,-116,-109,-73,-52,-25,12,45,56,0
-2,3,6,-4,-35,20,6,12,-7,-9,-4,-20,-31,12,-9,-12,3
2,-9,-3,4,-1,-4,-5,3,1,7,3,-4,-6,9,4,-1,2
21,6,4,3,25,5,-1,4,34,-2,0,1,30,-1,0,3,2
-17,-11,1,-4,-16,-13,-8,7,17,-22,-23,-3,-1,-14,-22,5,1
-24,5,10,-26,-23,6,-5,-13,-21,11,1,-43,-32,7,-23,-5,1
48,45,29,12,4,-3,-13,-25,-47,-68,-75,-63,-46,-36,-25,-23,0
9,-8,10,6,1,1,6,10,26,5,-4,-16,12,1,-1,-1,1
0,-3,3,-8,4,0,1,-13,0,-5,6,-5,-3,-2,1,0,3
13,-10,-4,-1,-1,-10,-8,17,5,-13,-8,-8,-4,-4,-11,-7,3
-18,31,11,17,-9,10,5,34,-2,-10,-11,7,-4,-14,-4,5,3
7,16,0,17,24,-8,11,12,10,5,-11,5,11,-5,-3,7,3
6,2,0,-5,-10,7,-2,7,-3,-1,2,-3,3,-4,-5,2,3
29,59,86,55,-1,-56,-82,-103,-96,-73,-61,-50,-33,-19,-31,-26,0
-1,-2,-10,-4,-18,9,-7,-2,-9,7,-1,-1,4,-5,-4,1,2
-31,-33,-32,-25,-8,-6,-14,-21,-8,10,11,15,6,0,4,11,0
-66,-68,-83,-95,-100,-84,-61,-33,-6,6,11,2,-18,-50,-95,-118,0
22,2,-4,-31,-9,16,-14,-4,19,13,3,-6,27,7,-5,-2,3
0,-3,-5,-2,-3,1,-1,-7,-1,0,3,-13,-3,-6,-6,4,3
-19,-11,-7,7,-22,-5,-3,0,-17,6,-1,14,-16,6,15,-3,3
-15,12,-13,5,-13,-9,9,2,-15,-4,0,-9,-18,-10,6,-6,2
4,2,-1,6,11,-3,1,0,8,-5,-4,10,18,-3,-5,-1,3
37,22,-9,-10,31,17,-1,-6,29,0,14,-13,28,14,2,-13,1
16,-1,-3,-1,19,-7,-2,1,4,8,2,2,9,4,1,3,2
1,1,3,3,-8,8,7,0,1,1,-2,-1,-7,-2,3,5,2
-5,-1,3,2,7,-12,-3,7,0,2,-5,3,6,-8,0,3,2
-7,9,7,18,10,4,16,-3,-2,1,3,15,-1,8,7,3,1
30,49,57,48,40,24,9,11,17,22,13,8,-15,-46,-77,-83,0
-34,-25,-5,8,15,-13,-35,-53,-54,-56,-44,-20,4,29,46,56,0
-3,-9,-1,11,2,-11,3,5,-1,7,2,-3,15,-5,0,-4,2
10,4,15,-3,12,1,16,-2,8,14,43,-11,-4,35,41,-19,1
-107,-60,-9,36,61,86,92,80,43,3,-33,-62,-74,-80,-81,-77,0
-4,-23,-10,-18,-26,-2,-11,-16,7,-20,-1,-3,2,-8,-3,-6,3
-5,-14,11,6,-14,-3,21,-6,7,14,-1,-21,6,7,-11,-3,1
-7,13,25,33,15,-15,-44,-66,-78,-81,-94,-112,-121,-111,-98,-79,0
-4,-6,2,7,-2,-2,2,2,-7,-5,-12,19,-7,-1,-3,5,1
-1,4,10,1,-18,13,8,11,2,4,7,5,5,2,2,8,2
64,41,-3,-6,21,27,19,21,24,-9,-1,69,121,117,116,92,0
-8,-17,-14,4,-15,-8,-19,7,-2,-19,-5,13,-19,-12,7,10,1
0,3,2,6,1,-5,8,8,-6,10,3,-3,-1,2,6,-3,2
24,-10,-56,-105,-141,-145,-120,-82,-42,-9,10,22,40,63,62,44,0
8,-3,3,1,10,-4,5,-2,-3,-4,5,7,4,-7,4,4,2
0,-4,-10,-16,-12,0,-5,-13,-5,5,-1,-26,-22,14,-5,-14,1
16,11,1,-7,24,9,-7,-5,6,6,2,-6,7,6,-3,-3,1
-74,-65,-55,-37,-19,-4,11,33,53,64,75,83,81,65,57,44,0
5,9,-8,-10,-7,2,5,-4,6,-3,-3,-2,-10,7,-1,2,1
0,-1,-3,1,2,-1,1,-5,-2,-2,-4,3,1,-10,6,-1,3
-2,-18,-69,-85,-63,-57,-85,-116,-121,-114,-73,-24,-10,6,32,34,0
-4,11,14,8,-26,29,11,15,-2,5,4,10,-11,12,11,6,3
-1,-7,-2,-7,8,-21,-4,1,-9,-5,2,3,-5,-4,-3,3,3
65,80,93,82,42,-23,24,30,-17,-76,-147,-151,-133,-83,-54,-40,0
110,69,29,12,11,17,20,23,20,3,0,-3,7,0,-6,-17,0
38,60,71,82,84,48,9,1,0,9,51,100,114,101,95,72,0
51,47,23,-9,-30,-47,-42,-42,-40,-37,-35,-30,-31,-12,-4,1,0
-16,-12,-18,1,-18,-17,-11,2,-6,-18,-22,14,-10,-16,-6,1,1
9,10,9,1,16,4,8,1,2,20,15,-15,16,7,5,-6,1
47,61,69,67,46,15,-6,-14,-1,15,25,7,-20,-45,-49,-27,0
-13,-3,-6,-1,-10,-6,-8,2,4,-6,-8,-4,-3,-3,-5,-3,2
-2,10,14,3,2,16,16,-9,-9,10,8,-12,-10,14,4,-12,1
44,43,44,42,37,45,55,73,95,114,117,128,122,113,91,81,0
-148,-168,-161,-134,-98,-72,-62,-46,-40,-38,-30,-17,-17,-31,-54,-83,0
110,82,48,15,-4,-24,-27,-29,-11,11,37,76,90,106,123,126,0
-4,9,-2,-6,-19,17,3,-4,5,-8,-2,-6,22,-30,-1,-3,2
3,-9,3,-19,-5,-2,-15,0,8,-4,3,-13,-4,-8,3,1,1
-7,1,4,-7,0,-7,2,-3,-2,-6,3,-11,-10,-4,-9,7,1
4,0,-16,-25,6,-18,-36,11,-5,3,-4,-20,-3,-7,-12,-4,1
-1,5,0,-10,-3,0,-4,0,0,-4,-1,-7,4,-12,-5,2,2
-19,1,32,31,9,2,14,13,8,13,3,-14,-24,-17,-16,-20,0
-7,2,-1,0,-4,-11,-13,-17,-27,-45,-51,-45,-45,-32,10,51,0
-8,-12,-32,26,-11,-11,-20,16,-22,-10,-35,36,-13,-24,-11,17,1
-4,5,4,3,13,-5,-1,2,-1,2,8,0,11,-3,-1,1,3
-26,-17,16,26,3,-12,-21,-22,-21,-37,-81,-91,-80,-69,-61,-59,0
69,77,74,60,25,-7,-30,-21,0,18,9,-10,-33,-55,-76,-84,0
62,66,130,145,115,68,70,62,36,39,59,58,64,103,85,39,0
2,-11,-2,-4,3,-6,-4,-9,13,-8,-5,-4,15,-13,-5,-2,2
-3,15,8,-22,-8,24,-1,-17,-5,0,-5,-22,-20,-2,-10,1,3
6,0,-2,-2,8,-7,-2,3,-3,-1,0,-4,-3,-8,2,0,2
36,39,43,-31,17,34,56,-20,35,21,44,-65,13,22,14,-16,1
2,-5,4,9,8,-8,6,4,1,-2,1,7,12,-14,6,3,2
-6,9,35,48,51,41,29,21,-1,-12,-33,-46,-54,-42,-39,-46,0
5,-6,0,1,-5,8,0,-4,-3,1,1,0,-4,9,-5,-1,2
-6,9,8,-25,-3,3,-12,-3,-6,12,-3,-10,1,-1,-5,-2,1
5,-12,-4,-3,1,-9,7,-13,5,3,0,4,2,3,7,-1,3
8,6,-2,-32,7,3,-23,-6,0,-13,16,-30,-11,-4,-11,-2,1
11,11,6,-8,11,7,3,0,-2,13,9,-6,-5,12,10,-5,1
3,-1,3,-3,10,-8,1,-2,6,10,-2,-5,15,4,-4,-4,2
-25,-31,-19,32,-22,-8,-17,6,2,-21,-47,39,-4,-12,-27,16,1
42,49,75,83,79,59,37,29,10,-5,-34,-69,-88,-82,-57,-23,0
64,5,-57,-120,-136,-146,-100,-59,-5,36,46,53,44,53,70,92,0
14,-8,-25,-11,-6,-1,-31,7,23,-10,-30,-2,-1,-3,-24,9,1
11,19,10,-31,10,-6,5,0,12,12,21,-37,8,-3,12,-9,1
-3,1,-9,1,6,-9,-8,0,-10,-6,-1,2,-8,-5,-6,2,2
-1,7,4,-10,4,2,-2,-3,2,13,-18,-4,-3,3,-17,10,1
2,-2,-5,2,10,-10,-6,3,4,7,-6,-1,-8,13,1,-3,2
11,10,6,6,22,2,7,1,14,10,23,-31,10,9,1,-3,1
-9,-4,-7,2,-9,-13,-7,11,-3,-2,-2,-1,-8,-6,5,1,3
16,6,-1,26,64,-10,1,-8,20,-3,8,27,27,4,12,8,3
4,-1,-8,0,6,4,-11,-4,1,2,-20,0,4,-7,-19,5,1
-2,11,5,-2,-7,4,10,4,-2,13,1,5,-2,9,5,5,2
-1,-4,-9,-5,-8,-2,-7,-3,2,-9,-11,-16,-5,-13,-17,1,3
-9,-14,-1,11,-6,-4,1,-6,12,-2,-38,14,-6,-17,-6,14,1
-9,6,9,8,-8,2,8,12,12,3,14,8,-2,15,15,9,2
-4,-14,5,-9,-18,-1,-5,1,-7,-13,-7,-2,-16,-12,-1,0,3
-3,-21,-2,-5,-14,-16,-1,1,0,-22,-6,4,-30,0,-3,9,3
4,-18,-7,-14,-10,2,-2,-24,-6,-13,0,-2,-11,-6,2,-7,3
-147,-76,9,87,140,153,138,93,20,-48,-100,-140,-164,-161,-147,-118,0
-54,-28,-19,-27,-42,-57,-45,-32,-26,-22,-21,-37,-48,-41,-23,-7,0
-8,-16,-6,-17,-24,2,-10,-15,6,-22,-1,-1,0,-9,-3,-5,3
-167,-131,-87,-60,-28,-9,14,32,37,8,-58,-123,-190,-240,-251,-222,0
12,5,4,8,17,2,7,2,10,13,5,6,15,8,7,5,2
-5,7,9,18,17,7,13,-9,-6,7,13,17,-7,21,16,2,3
0,-6,1,-4,3,-5,4,-12,-1,-5,-3,7,1,-6,-2,5,3
8,-27,-38,24,6,-13,-38,11,5,-9,-63,27,12,-24,-44,16,1
2,6,0,-4,-8,10,-3,4,-4,8,-1,1,1,7,-5,2,2
25,3,-12,-16,20,-7,-10,-4,-2,1,9,2,15,6,-10,-3,1
3,7,-9,-2,22,25,-6,-18,-62,-103,-114,-135,-185,-159,-109,-90,0
-2,3,-10,-4,-7,2,-3,-5,-1,-2,-5,-3,-4,0,-9,3,3
1,4,3,-4,9,-2,0,-3,-1,12,2,-8,6,7,-4,-3,3
16,-2,-10,-3,12,-6,-8,5,20,-2,-12,-1,11,3,-9,-1,1
111,68,-1,-42,-56,-52,-69,-107,-154,-176,-147,-88,-18,41,83,104,0
-3,-3,-2,-17,0,9,-15,-20,6,12,4,-8,-2,24,-3,-5,3
-6,2,0,4,-5,-13,4,15,7,23,26,-31,13,27,9,-23,1
4,16,1,-1,-9,20,7,2,19,-4,4,0,41,-24,0,1,2
-69,-58,-53,-44,-30,-27,-30,-39,-44,-54,-48,-47,-50,-53,-51,-44,0
3,-3,-3,-6,-10,7,-2,-4,0,-6,3,-2,-2,0,-3,0,2
-77,-83,-93,-97,-102,-96,-85,-83,-98,-109,-111,-109,-91,-69,-43,-7,0
-4,-5,-2,-4,-5,-4,-7,-1,-2,-9,-4,1,4,-12,-8,1,2
-9,3,-2,-1,-11,3,1,-1,-6,-5,-6,-6,-4,-8,-7,-5,2
2,-3,-7,-6,-9,-6,-1,3,1,4,-4,-5,4,1,-8,-1,2
13,-17,-3,-2,-2,-7,-3,4,0,4,7,-6,3,6,-8,3,2
-25,-23,-16,-7,-25,-18,-8,-20,-17,-16,-7,6,-20,-18,2,2,3
-38,-21,-4,14,35,51,39,16,-15,-36,-57,-65,-78,-96,-108,-102,0
2,-2,3,-1,1,0,2,-1,-5,4,2,2,4,-5,3,1,2
1,-1,7,-7,-10,10,4,-3,-6,-2,1,2,-7,-3,6,-2,2
8,3,-1,-14,9,-3,-9,-2,-13,23,6,-21,-13,19,1,-12,3
1,4,-5,-2,6,-4,-11,8,-2,-2,10,-14,-8,3,0,-3,1
1,2,3,-4,3,1,-3,1,5,2,-2,6,12,-8,6,1,3
1,-5,0,5,1,-3,0,3,-1,3,10,9,-4,6,12,5,3
16,-3,11,-23,7,12,-5,-12,7,-9,3,-13,-1,4,-7,-9,1
2,4,-21,-14,-11,6,-30,6,15,-2,-23,-6,-1,-3,-22,8,1
3,-3,-3,-11,-2,-2,-9,-2,5,-16,-8,-8,-8,-7,-10,-4,2
-35,-32,-22,-22,-26,-44,-70,-82,-75,-50,-29,-2,16,29,38,40,0
15,9,7,-13,17,1,6,-6,9,6,11,-1,21,-1,2,4,1
3,1,4,2,6,-1,9,-4,3,-6,0,3,1,-1,0,-1,3
14,5,9,0,16,4,10,-2,15,-4,-1,1,7,6,-4,3,2
-2,1,1,5,7,-8,-1,7,6,-2,-5,4,12,-1,1,-8,3
17,-3,9,11,22,6,7,-1,14,-1,-15,30,27,-1,-3,6,1
-9,9,0,-10,-5,-7,2,1,-4,3,22,-28,-9,5,-2,-3,1
-38,-4,24,23,16,28,37,39,51,67,77,83,110,121,110,114,0
71,9,-5,-3,77,5,-8,-1,60,28,3,11,77,11,7,6,1
-159,-160,-151,-117,-83,-30,13,54,97,132,149,162,164,157,133,92,0
5,7,8,-9,-18,17,-4,16,4,5,1,-8,-2,3,0,0,2
1,17,38,40,45,46,37,21,23,21,10,12,29,22,21,32,0
-2,6,-2,-7,-3,5,-4,-3,0,-4,0,-5,3,-10,2,-3,2
-7,-10,-16,4,-7,-7,-20,5,-16,-18,-14,5,-11,-17,-10,-5,1
-13,-25,-12,28,-6,-10,-10,4,2,-13,-42,38,2,-10,-22,14,1
-34,-34,-50,-55,-40,-27,-29,-12,-1,3,0,14,19,11,6,-7,0
25,-7,-4,-8,14,-5,-8,6,22,3,-11,-3,10,12,-9,-2,1
2,13,12,4,-17,-54,-87,-107,-115,-119,-116,-108,-92,-56,-12,23,0
13,19,-3,-1,13,21,-5,-1,15,27,6,-14,10,24,14,-14,1
9,2,-9,-4,24,-9,-6,-12,-2,3,-7,26,0,1,12,8,3
25,4,-13,-1,23,4,-5,-7,-2,1,-10,-15,-9,-10,-17,8,1
8,11,-4,9,18,1,7,-2,7,3,-2,4,8,-4,3,6,3
0,0,-1,-7,-2,-2,-4,0,-11,-1,-2,-7,-8,-5,-4,-4,2
41,26,-8,-13,31,20,-2,-3,32,7,23,-25,34,18,1,-17,1
2,-11,1,-6,-4,-3,-10,2,-3,-8,-5,-2,-3,-12,-6,3,2
5,-3,-6,-16,3,-2,-16,-5,3,3,2,-18,4,3,-10,-7,3
2,-10,-2,-4,4,-7,-3,-7,16,-7,-4,-4,19,-10,-5,-3,2
-1,23,17,-3,19,6,2,8,2,-7,23,3,10,3,15,-8,1
6,-3,5,1,8,-2,6,-3,-11,-1,0,0,-8,1,-3,-1,2
2,12,5,-4,-5,9,4,7,5,10,-1,-2,7,11,0,-4,2
2,-5,1,-7,7,-6,-3,-7,-1,5,-1,-2,-10,5,4,1,3
4,2,-1,-10,11,-9,-8,0,-13,4,-2,-11,-9,-10,0,-3,2
12,9,-24,-56,-59,-48,-21,-3,9,45,45,23,-26,-74,-68,-29,0
-73,-43,-7,-10,-16,-31,-29,-35,-43,-43,-55,-53,-53,-58,-46,1,0
-4,-3,-8,-10,-11,1,-5,-10,-10,-5,-4,-1,-16,-2,1,-3,2
7,7,-1,-3,-9,13,-7,13,-2,6,-6,-9,-1,-3,-12,5,3
-18,-50,-21,23,18,37,39,70,72,51,23,-11,1,-6,-61,-40,0
-2,-20,-4,0,8,-23,-5,-6,0,-5,0,1,-1,6,-4,-6,2
28,39,43,34,7,-15,-25,-30,-22,-9,10,19,29,27,15,2,0
-9,2,-13,-7,-11,-5,-13,2,-19,-7,-2,-3,-12,-8,-7,-3,2
4,21,20,3,11,17,17,3,11,8,9,-3,15,2,7,2,1
-3,2,6,-3,-10,9,4,0,1,-2,-1,-2,1,0,-10,5,3
6,-7,-3,-5,3,-3,-5,-4,2,1,-4,1,9,-9,1,-1,2
-13,12,-16,6,-15,-8,8,3,-14,-4,-1,-8,-18,-8,3,-4,2
1,-1,5,6,-2,3,4,6,-1,4,6,9,5,4,4,6,3
6,14,7,10,11,16,6,4,10,7,7,5,12,10,5,2,3
0,3,1,-5,-4,-8,2,10,0,-3,-6,21,9,19,1,-16,1
2,-10,-5,-9,16,-15,-7,-15,3,-9,-6,4,2,-8,2,-4,2
-1,-8,-1,9,15,-8,4,-12,-4,3,5,16,5,5,9,0,3
-6,-5,-1,-3,-1,-8,-5,0,7,-8,-3,-3,11,-9,-7,-2,2
11,1,10,-10,-9,6,19,-5,18,10,8,-24,19,15,-23,1,1
-4,-5,-2,-9,-13,-6,1,-3,0,-4,-1,-6,-12,2,-4,3,2
-63,-59,-43,-25,-5,25,45,51,49,33,10,-12,-30,-51,-68,-73,0
-11,3,1,-12,-17,2,-1,-3,9,7,-6,-15,9,-3,-6,-6,2
0,-15,-13,-9,11,-19,-6,-23,-4,-10,-2,4,-14,-6,5,4,3
-4,8,4,8,-4,18,8,-5,-5,6,1,17,-6,7,11,7,2
6,-4,-10,-17,1,-3,-6,-16,1,-7,-2,-11,-16,-9,-2,8,3
-1,-3,1,1,-2,-3,-6,10,-5,-2,1,2,0,1,-6,1,3
1,-8,5,3,3,-6,1,3,10,-5,-8,9,6,-4,-1,6,2
1,12,10,-1,-15,18,12,8,3,9,8,3,3,10,4,6,2
42,11,3,6,37,14,7,5,35,16,7,18,46,15,9,6,1
-3,2,4,17,-14,13,11,10,-11,7,12,12,-19,12,25,2,3
81,85,92,58,46,65,-5,-69,-55,9,31,70,113,142,90,55,0
-8,1,11,-2,-3,4,4,-2,-5,2,0,2,-1,-4,2,2,3
-5,2,2,-2,-5,-1,-1,1,0,6,1,4,3,4,1,3,3
-91,-76,-58,-30,3,21,13,-6,-25,-54,-53,-49,-60,-37,2,16,0
-1,4,-7,-2,-3,0,-4,1,-1,-8,-4,1,0,-13,3,-2,2
74,86,82,54,26,1,-9,-21,-19,-9,-11,-26,-41,-32,-19,-3,0
1,-8,0,11,-18,13,5,3,-1,-6,-1,-1,-4,-3,6,-7,2
13,16,-7,7,11,24,0,-7,8,28,-2,-8,11,19,5,-8,1
24,6,5,5,30,7,3,0,41,11,16,6,42,21,13,-1,1
-1,-4,-3,6,-4,4,4,-5,1,-5,-4,1,3,-1,-12,3,3
8,0,1,2,19,-7,-6,6,12,1,2,6,11,7,2,3,2
-120,-142,-136,-90,-16,63,126,177,187,150,77,-14,-103,-161,-190,-207,0
4,-7,4,-5,-4,-2,4,-1,10,-8,2,-5,9,-9,4,-5,2
-2,5,10,3,-8,10,0,12,4,2,1,-2,-2,8,-3,0,3
-138,-141,-117,-88,-60,-40,-30,-46,-64,-80,-95,-96,-88,-54,-24,-3,0
31,-5,-26,-6,18,-5,-23,6,10,-1,-11,-8,4,1,-13,-1,1
9,-16,-45,-73,-110,-129,-140,-115,-100,-82,-28,-1,-6,-36,-96,-131,0
-25,5,-8,-15,-42,7,-1,-7,-33,-14,-7,-10,-17,-33,-9,-6,2
8,-1,-1,3,13,0,-5,1,16,-10,-1,10,20,-9,-4,6,2
6,15,7,-3,-5,-24,-48,-60,-52,-35,-15,10,27,13,-24,-45,0
-1,-2,-1,12,0,5,2,2,-1,12,-8,9,17,2,-9,3,1
78,8,-6,-1,81,9,-7,-4,67,24,-1,16,81,9,10,7,1
119,116,120,115,108,100,100,84,48,13,-31,-70,-96,-103,-95,-71,0
-5,-11,-7,-10,-4,-14,-18,-30,-45,-46,-22,-10,-14,-8,-8,-16,0
-2,9,2,-1,-7,4,7,5,-1,12,0,6,-2,8,4,6,2
0,5,3,6,-4,1,11,5,7,7,5,12,5,6,12,8,3
2,13,15,-3,-8,22,6,7,-1,9,-2,8,5,4,2,3,2
5,2,-5,-17,-1,-3,-10,-1,2,0,-9,4,3,3,-14,6,1
-5,6,-1,-27,-14,13,-7,-18,-3,12,6,-28,-24,19,-5,-1,1
-28,-43,-28,-10,-29,-30,-24,-27,-36,-14,-6,-1,-49,3,-7,-3,3
9,-3,-9,-4,20,-12,-4,-12,-3,-4,-7,25,-9,-1,11,9,3
-7,-2,-5,-4,-2,-7,-6,-3,-8,0,-7,0,-10,1,-4,-3,2
2,5,2,-4,-20,7,0,18,6,-14,0,-16,-6,-13,-7,2,3
-1,-5,16,16,10,-9,24,1,-11,19,37,9,-4,35,43,-20,1
41,48,43,41,50,78,97,85,62,41,34,30,37,37,31,19,0
0,11,-1,1,-4,8,-2,9,5,5,-4,-3,2,1,-5,5,3
9,17,13,-2,-32,-50,-72,-91,-114,-118,-111,-98,-76,-46,-21,-10,0
-107,-103,-95,-82,-57,-36,-24,-24,-46,-77,-106,-123,-133,-142,-136,-131,0
65,34,3,11,78,25,7,2,54,20,14,19,71,19,18,0,1
5,17,-3,-7,8,9,0,-5,-2,-5,9,-2,3,0,-3,0,1
1,3,3,13,2,6,6,5,5,-11,-9,3,3,-11,1,-4,3
2,-4,1,5,9,-8,0,4,15,-12,-3,4,-3,1,2,4,2
-37,-32,-51,-79,-74,-43,-40,-45,-23,-45,-62,-47,-27,-22,-39,-47,0
-21,-26,-23,22,-26,-10,-20,8,2,-18,-47,27,-11,-14,-27,16,1
-47,-42,-22,20,76,120,145,140,123,102,86,72,40,14,-8,-30,0
4,14,-9,-5,16,-2,-9,-1,5,-2,0,4,8,-3,1,1,3
29,11,-6,4,32,-1,-5,12,2,12,-3,4,13,0,-10,12,1
7,-3,-1,-2,-1,-8,-6,17,4,-16,-9,-6,-4,-7,-11,-5,3
42,2,10,6,49,1,13,-2,73,35,5,-5,56,53,4,-5,1
-2,1,2,-16,-14,8,-7,-3,2,9,17,-25,-10,13,5,-6,1
42,-9,-37,-14,-28,-77,-87,-45,-48,-46,-29,-20,-30,-12,17,-14,0
0,-3,1,0,2,-2,1,-3,-5,1,7,3,-5,2,7,3,3
4,-14,-7,-2,9,-19,-12,4,-1,-2,1,4,5,-5,-1,3,2
-52,-55,-52,-48,-32,-23,-31,-39,-36,-19,-4,10,9,2,-3,-2,0
13,-3,7,21,33,-8,16,-3,16,-1,6,27,22,10,7,8,2
-73,-113,-130,-147,-128,-98,-72,-45,-30,8,55,123,167,167,125,48,0
-7,-5,-16,7,-4,0,-16,0,-5,-11,-10,20,0,-11,9,-3,1
7,8,-3,1,-7,23,3,-5,1,7,-3,6,4,9,-7,6,2
3,12,-2,9,11,2,4,4,5,3,7,8,7,3,16,-2,1
174,201,204,156,72,-19,-77,-95,-87,-63,-38,-18,12,52,82,97,0
-1,28,17,-1,6,18,18,1,12,9,7,-8,13,0,6,2,1
49,15,9,8,62,7,14,-3,67,39,10,2,64,47,9,-3,1
-8,1,-3,-6,-8,4,-7,-6,-7,-7,-3,-6,-8,-9,-1,-4,2
-26,-3,26,40,50,58,76,78,58,16,-46,-97,-117,-103,-75,-51,0
-12,9,-2,14,4,0,19,-14,-11,-2,-7,35,16,11,12,-23,3
-23,-31,-23,-27,-15,18,5,-27,-34,-42,-45,-32,-16,0,22,27,0
2,-1,7,-9,-11,9,3,-4,-5,-1,-1,1,-6,-5,6,-2,2
4,5,8,3,5,2,27,-14,-7,-9,-5,19,-4,-13,4,11,1
-6,-2,1,-3,-3,-6,-4,2,5,3,-3,-3,10,-7,4,-4,2
18,-4,-9,-2,11,-4,-9,6,22,-1,-12,-1,9,10,-10,-1,1
-108,-122,-103,-67,-30,-1,0,-2,6,29,57,100,114,118,108,84,0
8,-16,-5,-5,18,-18,-1,-16,1,-10,-4,10,-8,-2,6,1,3
5,-15,-5,-10,10,-11,-10,-13,-4,-2,-6,-6,-8,-3,-12,5,3
6,-9,-1,5,4,-3,0,1,1,-1,-5,2,2,1,-7,0,2
6,15,-9,-13,9,4,-23,10,-16,7,-1,-3,-8,-4,10,-11,1
-108,-121,-101,-70,-76,-83,-77,-90,-93,-85,-83,-93,-99,-118,-150,-169,0
-6,-10,-26,6,-25,-9,-12,10,-6,-17,-33,13,-21,-21,-10,10,1
2,-2,1,0,-2,-2,1,2,-5,-5,1,-4,-6,-1,-5,-1,2
41,64,66,80,83,104,81,57,30,17,42,62,50,77,92,78,0
-3,4,-9,16,7,-6,6,2,0,3,-8,8,-1,-1,4,1,3
-1,-4,3,16,10,-6,6,4,-3,-8,17,27,23,-1,23,-12,1
20,30,25,23,21,5,-19,-20,4,3,-4,10,27,24,14,-8,0
-6,-2,1,3,4,-3,-1,-4,13,-13,-2,11,8,-1,1,2,2
7,-6,2,3,9,-1,-1,-1,3,-3,6,1,5,0,1,1,2
-8,-4,-7,2,-10,-12,-7,11,-3,-1,-2,0,-6,-8,6,2,3
-1,-9,-5,-3,-7,-8,-3,0,7,-12,-10,-3,-8,2,-12,-1,2
10,3,-8,-14,0,10,-24,4,-19,2,4,-3,-12,-1,14,-17,1
2,5,-4,-2,8,5,-9,-4,-1,3,-18,4,9,-3,-20,3,1
4,8,3,-10,2,9,-5,-1,-3,3,-4,0,4,-3,-7,1,1
24,5,-10,-2,22,4,-4,-6,-8,1,-4,23,4,-9,4,14,3
0,-3,4,-10,-12,7,-5,1,-3,2,-5,-5,-2,1,-5,-6,2
-6,9,-16,6,-3,4,-1,-6,6,-17,-19,10,1,-13,-17,9,1
6,16,12,18,36,-3,16,3,19,17,3,14,44,3,8,-2,3
-2,-5,-7,-5,-11,2,-5,-5,-1,-7,-6,-7,-5,-3,-9,-3,2
2,-9,-22,7,5,-23,-15,10,13,-22,-40,17,7,-35,-24,19,1
-20,6,-2,-7,-10,-3,-8,-2,7,-13,-14,-13,6,-16,-25,3,1
50,46,49,51,60,65,62,54,51,58,56,66,58,36,10,-10,0
21,-1,-3,11,21,5,0,3,2,12,-8,12,11,3,7,-3,1
0,-1,7,-13,-2,-5,-5,4,4,2,5,-12,6,-2,-4,-1,3
22,-12,11,3,21,20,0,-17,8,-4,-12,5,11,-7,-9,2,1
11,-8,6,-2,10,3,0,-6,15,-2,-2,8,12,2,2,2,2
65,76,66,46,18,-13,-27,-36,-35,-31,-23,-23,-20,-8,-3,5,0
-7,4,2,3,9,9,0,-16,-5,9,6,9,15,-4,14,-6,3
-26,-42,-54,-63,-59,-58,-59,-61,-68,-81,-85,-77,-62,-34,-9,10,0
-8,-2,2,-3,-9,-4,1,2,5,-12,0,-4,-7,-3,0,-1,2
-2,-5,-1,-1,-8,-3,1,1,-2,-6,-10,4,-5,-1,-7,-1,3
-19,-3,0,37,7,-15,18,5,-12,-43,-15,48,12,-45,9,1,3
24,38,47,-37,20,34,42,-24,21,32,51,-40,13,34,28,-11,1
19,36,46,-54,17,22,30,-21,19,22,49,-66,5,19,13,-12,1
15,15,-1,-24,22,1,-16,-2,18,12,2,-33,7,11,-16,-4,3
50,28,33,50,62,58,33,11,-36,-57,-45,-19,6,32,32,28,0
13,20,7,4,11,-5,31,6,16,3,31,-21,1,11,21,-4,1
-5,2,-2,1,-6,-1,-2,5,-2,2,1,-6,-4,-3,1,2,3
-2,4,0,-1,-7,4,3,3,9,-3,0,-3,1,-1,-3,6,2
12,-1,16,-5,-6,5,28,-4,20,11,18,-23,23,16,-13,0,1
-4,24,9,-6,2,12,12,-2,9,6,-1,-2,7,-4,1,8,1
3,16,16,12,25,4,12,5,20,10,2,6,37,-5,6,-1,3
-18,-3,-4,-16,-20,-5,-5,-10,-21,-6,0,-9,-32,1,-1,-4,2
138,130,79,10,-52,-91,-117,-123,-116,-99,-80,-32,31,85,124,133,0
5,1,1,2,6,4,-8,7,0,-6,-3,16,-3,-2,4,8,1
6,12,14,-23,1,8,-1,0,-2,24,12,-37,-7,11,-2,-5,1
30,8,1,4,26,11,2,3,22,5,6,-5,33,-5,13,-13,1
1,17,2,5,4,11,1,8,19,27,30,-17,16,41,25,-24,1
-5,11,2,-19,-3,-5,-7,5,3,4,0,-12,1,-7,5,-4,1
94,83,57,-1,-18,-71,-112,-116,-108,-92,-40,38,53,73,55,75,0
0,-4,-2,-6,-18,13,-4,-2,-1,-1,1,-14,-6,2,-1,-10,2
48,79,95,98,83,59,31,9,-8,-13,0,68,127,192,206,194,0
-4,-6,6,-12,-15,4,-7,1,-6,-6,-2,-6,-13,-7,0,-1,3
1,-26,-10,-19,-28,-2,-11,-13,6,-11,6,-5,5,-6,3,-7,3
51,67,50,22,-16,-37,-24,11,36,58,45,23,5,-18,-23,-40,0
22,3,-1,1,17,9,-5,4,9,13,-13,11,18,-4,-2,8,1
3,2,-18,5,-4,2,-5,-1,-1,-17,-18,19,0,-17,-12,11,1
5,2,-1,-15,7,-2,-10,-4,-15,8,11,-32,-29,9,2,-10,3
5,8,1,-3,4,10,5,-7,14,-2,0,-3,13,-10,4,3,2
62,55,53,52,51,37,16,-11,-54,-112,-161,-168,-143,-85,-29,8,0
13,-8,17,-4,13,15,8,-18,2,-6,-3,4,7,-1,-2,-6,1
4,-10,-4,-8,7,-10,-14,-1,-5,-2,2,-3,-16,7,-11,12,2
-47,-38,-30,-33,-26,-15,2,34,74,100,103,88,43,-9,-57,-71,0
10,7,6,-2,0,15,4,2,10,1,4,1,4,3,4,5,3
-7,3,7,-12,-6,7,-4,-6,-1,-5,-2,-1,-11,-6,3,5,3
99,85,47,16,-19,-37,-67,-90,-108,-103,-69,-32,0,25,39,37,0
-5,0,-9,-9,-7,-1,-5,-11,-8,-2,-5,-9,-6,-8,-8,-3,3
-2,-5,-9,-4,-7,1,-5,-8,-4,-7,-9,1,-10,1,-6,-4,2
-3,1,-2,6,3,-8,4,4,-3,10,3,-1,7,4,-1,0,2
1,14,4,1,7,8,6,0,-11,15,7,-2,-7,7,7,1,2
11,1,-4,-8,9,-6,-11,8,17,1,-10,-2,6,5,-12,7,1
-1,1,-2,-6,5,-3,-9,-2,-2,-12,-8,-3,13,-22,-12,-4,3
-7,-8,2,-6,-11,-2,-6,-1,4,-8,-4,-9,-8,1,-8,-3,2
52,75,54,62,66,42,42,55,57,50,72,85,49,59,87,97,0
59,15,-40,-92,-117,-124,-111,-88,-67,-45,-10,15,23,8,-5,-24,0
-5,-4,1,3,-10,3,3,-1,7,-1,-2,7,-7,12,7,-2,2
-5,-8,-7,5,5,-7,-1,-13,-2,-4,3,11,2,3,5,-3,3
4,3,-3,0,8,2,-12,7,-1,-6,-4,13,2,-2,-3,6,1
-20,14,7,-4,-11,6,0,3,-16,-4,7,3,-19,3,3,2,2
3,4,-3,-5,-10,10,-2,0,-5,4,-3,-8,-3,-3,-8,1,2
64,16,3,11,67,18,4,5,51,21,11,14,64,16,5,12,1
-10,2,3,1,-4,-4,6,-2,-5,6,5,-1,-4,7,0,2,2
-6,10,-7,2,-5,2,-2,4,-8,2,2,0,1,2,-3,-3,2
21,0,5,-9,8,24,-5,-11,11,12,-1,-24,3,4,-10,2,1
-15,-58,-97,-107,-90,-49,-16,2,20,36,53,74,91,81,51,22,0
6,-4,-1,-6,-2,1,2,-4,4,-6,-6,-5,-11,6,-9,1,3
5,1,5,12,14,-1,5,4,12,12,3,7,31,-3,4,2,2
3,-2,6,-7,8,-6,-1,-3,-1,1,-1,-7,-10,-5,3,3,2
-58,-57,-57,-50,-51,-72,-90,-103,-107,-104,-92,-77,-72,-74,-82,-103,0
60,53,37,8,-10,-14,-5,3,9,27,53,76,84,81,63,47,0
0,-1,1,4,-3,-1,-6,13,-5,-3,1,5,1,0,-3,0,3
6,14,9,3,9,15,6,2,7,25,17,10,13,18,16,12,3
-19,6,-3,-12,-9,-6,-11,-2,8,-13,-16,-13,7,-17,-26,2,1
-4,6,24,-9,-5,12,21,-11,9,14,25,-34,7,17,3,-12,1
-6,6,-2,0,-2,4,-3,-1,-5,-5,0,-2,-1,-10,-1,-1,2
11,-9,5,-1,12,2,0,-8,17,-3,-1,7,10,7,2,2,2
-4,-9,-8,-9,10,1,-15,-26,-2,7,2,13,5,13,10,-7,3
-28,2,-2,-13,-40,5,1,-8,-41,-5,-4,-17,-41,-16,-6,-5,2
8,-3,0,-20,-11,1,1,-5,14,-3,8,-26,-9,9,-2,-6,1
-78,-80,-89,-91,-75,-59,-42,-28,-18,-25,-32,-39,-40,-45,-53,-56,0
9,-4,-2,4,16,-7,-1,-1,-6,-1,-19,14,-3,-1,-8,0,1
8,8,5,-13,2,6,13,-12,3,-1,20,-16,-10,6,16,-6,1
4,-13,-5,-2,3,-10,7,-14,5,1,-1,4,1,1,7,0,3
66,106,138,158,154,113,62,-6,-62,-106,-116,-103,-67,-8,49,96,0
30,1,-7,2,36,-8,-5,2,53,7,-5,3,48,9,-3,4,2
-4,-11,-4,16,46,58,67,73,67,48,21,6,-3,5,17,26,0
-2,13,8,-3,-6,6,12,3,-1,14,3,3,-2,11,5,4,2
24,8,5,6,30,6,6,0,41,15,12,6,42,19,15,-2,1
6,9,1,1,-23,20,-4,24,0,5,-7,-8,-8,5,-8,1,3
-3,2,7,-5,-20,12,2,6,-2,-3,4,3,3,-6,-4,10,2
-5,0,4,-8,-14,6,-5,5,1,0,2,-11,-5,-1,-2,-1,3
-23,2,-1,-13,-35,4,3,-7,-32,-8,-4,-19,-36,-15,-5,-6,2
9,15,-6,-21,22,0,-8,-17,10,8,1,-12,13,-4,-2,-1,3
25,4,5,6,31,7,2,0,40,10,17,6,42,21,11,-1,1
-142,-107,-94,-95,-114,-137,-137,-112,-63,-4,54,85,93,92,95,82,0
-2,-3,-10,7,7,-13,-6,5,-1,1,-5,3,-6,13,-6,-3,2
3,-2,1,-12,-6,-1,-6,2,1,5,-3,-8,-2,8,-12,1,3
36,0,-8,0,41,-10,-4,0,45,13,-1,6,46,13,-1,7,2
45,10,-3,2,47,5,5,-4,27,14,-3,-3,46,-4,-5,-1,3
7,1,2,2,18,-8,-3,6,11,-4,1,6,6,5,-1,3,2
-5,-5,1,-3,-2,-7,-3,0,7,-7,-3,0,9,-7,-6,0,2
-11,-6,-14,1,-8,-9,-17,4,-9,-14,-31,20,-7,-19,-17,8,1
-9,-8,-5,3,-2,-17,2,-3,-14,-10,-6,12,-11,-7,-3,4,3
-52,-50,-55,-70,-90,-97,-83,-69,-30,-12,-19,-24,-38,-45,-41,-8,0
18,0,-11,-9,10,23,39,39,3,-33,-58,-64,-62,-41,-26,-41,0
-3,2,3,-22,-11,-2,-4,-2,0,-6,-1,-1,-7,0,0,-1,1
-2,5,0,5,-5,7,4,3,1,-5,-2,1,-3,-5,3,-1,2
1,2,0,10,5,-3,-2,13,7,2,2,-1,7,7,0,-4,3
-11,-17,-1,-21,-33,6,-17,-4,-3,-4,2,-33,-33,17,-15,-7,3
3,12,-1,8,17,2,1,3,5,-2,18,8,12,6,17,-7,1
1,-1,-4,-6,-3,1,-9,1,4,-3,-3,-6,2,-1,-13,4,3
2,-7,2,-8,-15,1,10,-6,15,-9,2,-19,-9,4,-4,-3,1
-4,0,7,2,-2,-4,10,0,-6,5,-1,-1,-3,3,-8,5,1
-9,25,4,4,-12,17,6,12,-22,13,11,13,-29,6,21,16,3
-5,3,-2,-2,2,-8,-2,1,2,3,-3,1,13,-1,-8,-2,2
0,5,-2,5,5,4,0,-1,-11,7,-3,1,-1,1,-3,-3,2
-12,12,0,14,-6,5,5,10,-13,29,8,13,-4,15,16,10,3
-15,-32,-42,-48,-47,-33,-8,12,17,1,4,12,15,24,23,9,0
-4,7,-17,5,-5,4,-3,-5,3,-18,-20,15,1,-17,-15,11,1
-66,-103,-152,-200,-214,-192,-160,-123,-99,-73,-38,14,51,68,49,-7,0
38,0,10,6,44,0,12,-2,72,32,5,-6,51,52,6,-5,1
47,7,3,-1,44,10,2,1,37,13,-3,7,45,1,6,2,1
-4,-3,1,2,-8,6,1,-2,-3,-3,2,3,-5,4,0,-1,2
-48,-30,-11,-8,-1,-2,-17,-22,-34,-50,-72,-98,-132,-161,-195,-220,0
-24,-24,-19,-3,-23,-20,-7,-21,-19,-17,-8,15,-20,-19,5,5,3
1,1,6,-12,-1,-4,-5,5,4,3,5,-11,6,-1,-4,0,3
2,3,3,1,-5,10,3,0,2,1,-2,0,-5,-2,3,5,2
30,5,5,9,47,-5,10,-3,48,11,-2,5,46,18,2,-4,2
-53,-88,-93,-68,-43,-17,15,50,89,121,140,135,121,110,93,68,0
-2,1,5,-3,-36,18,6,14,-8,-8,-4,-21,-32,14,-11,-11,3
22,30,24,16,-6,-10,2,8,-8,-38,-66,-82,-74,-55,-39,-34,0
2,-3,10,-8,-20,23,10,-12,-2,-2,38,-53,-18,10,13,-24,1
-1,-4,4,1,7,-5,-3,1,-3,-1,5,0,-4,3,0,2,2
45,6,-4,9,50,5,4,-2,39,22,4,15,47,25,7,1,1
-1,9,-1,4,-2,8,4,2,0,5,1,-2,-3,6,-2,2,3
-8,-6,-6,-12,-12,-5,-5,-11,-37,7,-4,-3,-32,-10,4,1,2
84,110,105,73,16,-29,-66,-66,-43,-16,1,3,14,20,54,86,0
123,67,-12,-89,-143,-154,-134,-92,-54,-19,16,59,107,136,154,127,0
1,-2,3,-3,1,-1,-5,5,-10,0,4,-14,-25,14,-9,-1,3
-12,-20,-17,22,-11,-10,-11,5,-10,-20,-38,34,-6,-23,-10,6,1
-18,-16,-3,4,-32,-3,4,-1,-11,1,-10,-16,-22,11,-16,-10,3
-41,-11,-14,10,36,28,3,1,-18,-54,-66,-65,-77,-78,-53,-32,0
12,12,2,24,17,4,8,21,16,-9,-2,18,24,-9,6,2,3
88,85,53,24,19,20,30,54,48,19,-4,-4,-10,-10,15,32,0
15,-8,1,12,19,-8,9,-1,5,10,22,-7,22,15,4,-11,1
-2,16,-6,5,-12,11,5,9,0,9,-1,0,6,11,-9,0,2
-2,-7,6,-6,-7,4,-3,-1,-1,0,2,-8,-3,3,-5,-2,3
19,-3,-11,-28,0,-4,-15,-3,11,-8,-5,-9,-1,-3,-16,9,1
-11,-3,-9,6,-2,-23,-7,15,12,12,15,-12,19,29,20,-40,1
11,-22,-29,25,10,-9,-23,8,6,-9,-59,42,7,-13,-29,15,1
1,2,2,4,-6,6,3,6,2,2,-4,0,1,0,1,-1,2
-6,5,-1,-3,3,-8,1,-1,5,-4,-2,-2,12,-5,-6,-4,2
2,6,1,8,13,-2,3,2,-1,0,2,6,8,2,-2,1,2
5,1,3,30,41,-14,18,-6,14,3,3,34,43,2,13,-2,3
-38,3,26,13,13,-5,-4,-9,-13,3,2,15,48,70,68,55,0
6,7,4,-10,-3,16,0,-5,6,0,-5,-10,-2,0,-3,-4,3
-29,4,-5,-12,-44,5,3,-7,-44,-15,-6,-6,-29,-30,-9,-4,2
-2,-16,2,-1,-8,-4,-1,-3,-8,-12,-10,13,-6,-11,1,1,3
8,16,-4,6,31,2,1,-8,10,16,5,12,32,-3,20,-5,3
64,34,4,10,77,26,7,2,53,21,13,19,73,18,17,-1,1
-42,-36,-43,-38,-38,-39,-38,-38,-26,-27,-24,-23,-22,-25,-34,-43,0
0,-3,9,3,-7,5,3,7,6,-4,3,1,2,-1,4,0,3
-16,-12,-19,2,-19,-17,-12,3,-5,-16,-23,14,-10,-16,-6,1,1
1,-6,-7,-7,5,-4,-3,-16,-3,-5,-3,-3,-8,2,-8,0,3
21,3,6,-7,10,23,0,-12,8,15,3,-24,6,4,-12,5,1
5,12,19,-1,23,3,6,3,18,12,8,7,26,4,9,6,1
-5,12,15,-9,-28,25,13,2,-12,5,5,-25,-23,12,-5,-10,3
-3,1,3,3,-7,3,5,3,-4,4,6,6,7,-4,7,1,2
-26,-5,-6,-40,-61,-45,-3,53,97,114,88,47,14,-17,-31,-10,0
53,61,42,20,9,-26,-57,-43,-16,-32,-14,47,77,93,122,125,0
-18,-7,-11,-17,-17,-19,-17,0,-7,-14,-33,-2,-24,-17,-20,4,1
3,-2,5,-6,-16,14,2,-2,0,1,1,-8,-7,3,8,-11,2
10,-38,-75,-97,-116,-145,-173,-181,-155,-105,-52,-6,11,21,21,3,0
2,-8,-3,-2,-1,-4,-4,-1,-5,-6,1,-6,-13,1,-1,-3,2
38,7,-2,11,37,8,9,1,30,17,5,10,48,-2,12,3,1
-7,1,-1,5,-7,-2,-4,11,0,4,12,-5,-17,16,10,3,2
-15,41,44,24,-9,-44,-73,-89,-117,-133,-133,-134,-152,-171,-163,-154,0
-15,-10,-10,8,-25,-2,-3,3,-13,0,-5,8,-15,-1,8,-1,3
11,6,-2,-34,6,4,-22,-6,3,-12,17,-33,-11,-1,-11,-2,1
-57,-18,4,15,-1,33,9,-33,-90,-139,-177,-166,-144,-125,-44,10,0
57,62,49,36,21,6,-23,-39,-28,-15,-22,-34,-42,-22,9,26,0
0,-4,2,-5,-2,-3,-7,5,-9,0,4,-19,-26,14,-12,1,3
-9,-11,-8,-7,-3,0,-4,-2,12,33,46,57,69,60,50,30,0
-2,8,-6,0,6,3,-14,5,0,-2,-8,4,4,3,-16,2,1
-35,-103,-172,-214,-227,-214,-178,-123,-62,5,71,117,134,126,107,65,0
13,37,45,54,45,29,12,-10,-19,7,57,95,114,118,107,84,0
34,-2,-14,-5,26,1,-16,4,17,1,1,-7,14,7,-7,-3,1
5,11,2,5,-26,22,-1,28,1,9,-5,-8,-6,8,-6,0,3
27,6,-27,-91,-145,-216,-227,-210,-160,-86,-39,-7,-18,-61,-108,-154,0
7,2,-3,-5,5,5,0,-9,-2,6,11,-7,-13,4,4,13,3
-2,-1,8,8,-6,8,1,9,-3,10,1,4,3,8,1,1,3
-33,-115,-174,-196,-211,-195,-151,-125,-67,26,100,117,129,73,7,-66,0
3,-10,-5,1,0,-3,-9,1,-1,8,3,-8,-7,10,2,-2,2
-106,-26,55,100,126,144,164,179,177,150,98,40,-28,-94,-150,-162,0
-2,-3,6,0,-35,13,5,19,-7,-6,-2,-24,-33,18,-15,-9,3
-1,8,5,2,0,6,8,1,5,7,-2,-3,2,16,-8,-2,3
-11,-12,-3,17,-12,-2,-3,8,-16,-9,-18,17,-10,-6,-14,4,1
3,2,-6,9,4,-2,-1,6,6,-5,-1,4,7,4,-7,0,3
5,1,-4,3,-5,13,0,-5,-4,10,-2,-24,-10,8,-6,-11,1
-2,1,8,-1,-19,12,4,8,-1,-1,5,4,4,-5,-2,10,2
6,-17,-8,9,-9,-7,-1,7,9,-19,-12,13,19,-25,-6,3,3
-3,5,-2,-5,-3,4,-5,-2,-1,-4,0,-2,2,-10,3,-2,2
-27,4,-4,-4,-31,-2,0,2,-31,-8,-1,-6,-35,-10,1,-1,2
-7,-9,-10,-4,-9,-7,-12,-2,-3,-11,-5,-9,-10,5,-14,-8,1
11,4,-1,5,4,15,1,0,6,-9,3,12,3,-1,6,3,2
-6,-14,-11,15,32,-32,-1,-16,-10,23,7,1,-1,14,2,6,3
-6,-2,-2,-8,-16,-2,3,-4,-9,8,-5,-11,-6,1,-4,-7,2
-2,-8,-3,-1,-7,-6,1,-1,-1,-7,-10,5,-4,-1,-5,-3,3
-114,-109,-68,-25,3,12,-2,-20,-30,-14,1,17,24,24,7,-12,0
-7,8,-1,-1,4,-7,1,2,-9,3,4,3,-9,5,2,2,2
18,-3,3,8,28,-7,3,2,15,10,3,13,28,2,5,5,3
6,6,8,8,27,2,-3,1,-4,-3,-7,20,19,-4,-17,8,1
-1,1,5,6,-3,8,4,3,-3,8,2,5,7,1,2,1,2
4,-3,8,2,-1,1,-1,11,3,0,7,5,4,0,6,5,3
-22,-9,8,19,34,34,27,16,18,19,20,28,20,10,-1,-4,0
6,3,3,-10,-5,11,-3,-3,6,-2,-4,-7,2,0,-2,-6,3
-27,-12,-1,13,35,46,55,54,44,23,-2,-29,-72,-97,-103,-87,0
10,9,3,-9,14,-2,5,-4,5,8,7,-7,15,-3,-1,2,1
52,27,17,-39,27,17,17,-3,38,26,37,-58,17,31,16,-21,1
-2,-11,-1,-5,-8,-1,-8,-2,0,-2,0,-7,-4,4,-6,-2,3
56,76,80,76,65,49,25,-7,-38,-67,-87,-102,-103,-90,-38,18,0
2,9,3,5,-13,7,4,21,11,8,2,-9,-4,9,3,4,3
-41,-47,-37,-18,-16,-12,-1,3,-15,-27,-30,-51,-61,-55,-48,-59,0
185,218,218,163,51,-50,-137,-203,-218,-157,-85,-70,-61,-64,-72,-89,0
3,0,-10,1,19,-6,-11,-7,1,-2,8,-5,15,0,-9,-3,3
13,0,9,-27,20,9,-10,-23,23,46,24,-36,34,20,-3,6,3
-13,2,24,38,40,43,54,70,77,71,40,-5,-55,-88,-107,-115,0
-2,-3,0,-1,-7,1,1,-1,-1,6,-2,-3,-3,3,-4,4,2
10,-13,-6,7,5,-7,-3,3,6,-8,-14,5,-8,0,-5,1,1
-3,2,-1,-9,-9,-2,-3,2,-4,8,-6,-7,-4,10,-13,-2,3
-13,-3,-4,-2,-8,-4,-9,1,11,-11,-9,-4,1,-7,-3,-4,2
4,-7,-9,5,7,-4,-13,4,-5,-1,-15,3,-6,-8,-13,9,1
1,5,0,2,-4,7,0,5,5,5,4,-1,7,15,0,-9,1
13,14,-13,-18,12,-6,-12,1,3,1,-8,-1,0,-11,-4,10,1
-110,-68,-10,20,4,-36,-70,-104,-168,-180,-150,-126,-121,-114,-104,-100,0
-41,0,33,44,35,1,-23,-32,-15,12,43,43,24,-5,-37,-63,0
-23,-27,-23,-24,-32,-32,-17,-1,27,49,39,11,-25,-47,-71,-86,0
-1,9,15,-9,-3,10,13,-6,2,11,21,-24,6,18,2,-17,1
-6,10,6,-3,2,7,1,-3,-7,21,7,-12,9,8,7,-14,1
-8,4,-5,0,-13,8,-4,0,-7,1,-1,-7,-10,1,-1,-4,2
3,-1,0,2,-3,6,1,-1,-2,8,1,7,-4,14,-2,6,2
-3,-9,3,-1,0,-7,-5,3,-1,-2,0,2,-3,4,0,-1,2
15,-8,-38,-62,-54,-20,-3,5,-8,-18,-27,-21,-22,-40,-43,-20,0
5,8,4,-21,-8,7,2,-6,19,-4,-5,-15,11,6,-23,1,1
5,12,2,11,12,11,5,3,12,5,4,7,14,9,5,-1,3
-17,-11,-9,5,-8,-7,-26,9,1,-14,-18,-2,-16,-18,-4,6,1
74,49,33,12,0,-22,-29,-29,-22,0,23,50,61,70,70,64,0
-1,3,-11,-5,-16,7,-7,1,3,-1,-6,-6,-7,-3,-1,0,2
-8,-2,-7,6,-4,-20,-4,17,14,17,21,-22,17,33,16,-37,1
43,36,16,-26,-70,-90,-87,-62,-31,-5,7,16,31,40,51,55,0
-4,0,4,-1,-8,1,5,1,-7,6,-2,-8,-5,0,-2,-4,2
5,-3,6,2,-23,16,7,10,1,3,4,-7,-5,8,-2,-2,3
-6,9,-1,-8,-3,9,-5,-7,-10,1,1,3,-12,-1,8,-2,2
-1,-13,-18,2,-13,-5,-11,-2,17,-10,-12,-12,-6,8,-17,-3,1
-6,7,13,12,-24,24,14,13,-6,9,8,11,-14,14,16,8,3
-77,-91,-102,-99,-89,-83,-60,-46,-36,-37,-53,-78,-110,-124,-127,-121,0
8,-14,-5,3,-10,-2,-3,6,8,-14,-9,9,20,-23,-5,2,3
-44,-17,-10,-12,-37,-73,-99,-96,-70,-29,11,27,20,3,-15,-45,0
-6,4,2,8,-6,1,4,9,-2,4,10,-6,-19,14,8,4,2
28,2,2,5,41,-7,3,-1,53,14,-5,8,55,5,2,9,2
-7,2,6,0,-7,1,0,6,2,0,1,6,0,8,6,-6,2
1,-2,-3,0,10,-8,-7,0,0,5,-6,-3,-13,9,3,-2,2
-2,6,13,3,2,11,9,-1,1,-1,14,9,4,3,14,4,1
-7,12,29,-26,5,3,0,-1,-16,11,51,-20,-5,25,20,-13,1
5,12,8,-5,-5,25,8,-8,1,7,1,-8,-3,4,1,1,3
-4,-6,-3,2,2,-7,2,-8,-7,-4,-1,8,-2,-9,7,0,3
-40,-56,-50,-68,-64,-68,-60,-58,-48,-30,-15,12,9,-7,-43,-84,0
1,0,-4,-1,-6,6,-6,1,-3,4,-3,6,-6,-2,5,7,2
2,15,-2,10,14,2,5,5,6,3,10,9,10,2,18,-2,1
9,13,12,4,3,26,11,-2,4,6,7,5,4,7,6,6,3
6,18,-2,-8,5,6,-15,18,-2,12,-6,-9,-1,-8,-4,7,1
-7,-5,-3,2,2,1,-11,-6,8,8,-25,1,-8,2,-7,5,1
-5,-19,-21,-20,-24,-19,-21,-25,-27,-18,-2,0,0,5,4,3,0
3,-7,-3,-14,6,-6,-10,-11,-2,0,-2,-8,-9,3,-4,-1,3
5,3,-5,-9,13,1,-11,-9,1,-13,-1,-1,5,-14,-6,1,3
4,22,27,21,6,-5,-9,-3,0,1,-20,-34,-44,-45,-38,-23,0
-115,-119,-110,-113,-106,-97,-73,-55,-34,-23,-26,-44,-68,-83,-101,-110,0
-24,4,0,-7,-14,-1,-9,-4,-25,-12,-2,-1,-31,-14,4,0,2
3,-2,11,3,4,5,11,-3,-3,1,-1,6,0,-3,4,2,1
15,-12,-27,-37,-56,-81,-82,-71,-36,-1,25,31,22,26,33,48,0
-159,-154,-130,-97,-71,-31,9,53,83,99,94,52,-4,-56,-78,-90,0
1,-7,1,4,1,-8,0,6,2,8,-2,-5,-2,4,0,1,2
-5,1,-1,5,-3,0,-1,3,-4,-2,1,-3,-5,-5,4,-1,3
2,8,0,-1,2,8,6,-6,11,-2,-1,-1,10,-10,4,4,2
19,-15,-4,-6,-3,-6,0,3,45,-12,-9,-13,12,14,-16,2,1
0,1,2,9,-12,4,8,13,5,-8,0,10,6,-3,1,4,3
2,8,-2,8,8,2,3,4,4,2,3,6,3,2,12,-2,1
24,33,44,-33,21,36,32,-21,25,27,45,-36,17,32,23,-9,1
-2,5,-1,-1,2,-1,-3,3,15,-5,-4,-6,17,-11,-2,-2,2
1,-1,-7,15,7,0,3,-1,-2,18,-1,8,18,13,-5,-3,1
35,13,16,-20,18,14,12,-1,24,5,33,-28,3,26,18,-14,1
-6,-3,5,-1,-5,-2,0,1,-2,7,-1,1,-6,5,4,2,2
-1,-12,-6,-7,6,-18,-15,2,-2,-5,0,-3,-1,-9,0,1,2
239,241,185,92,-25,-116,-189,-235,-245,-230,-198,-137,-70,11,80,141,0
7,30,3,-43,-9,20,-21,6,-9,10,-2,-17,-17,9,-10,-1,1
2,-4,3,-10,-1,-2,-4,-2,8,-11,-6,-7,0,-11,-4,-2,2
-3,2,7,7,0,7,12,-6,0,3,2,-1,5,8,0,-10,1
-2,18,-2,9,0,9,12,4,-1,2,1,2,6,-7,4,1,2
-1,3,4,-2,8,-2,8,-10,-1,6,-1,-6,3,1,1,-7,3
12,0,2,-4,-7,16,2,-1,6,4,6,-6,4,8,0,-2,3
-7,0,-5,-14,2,-1,-11,-23,-49,-43,3,26,25,21,9,-17,0
3,-1,-2,-3,-3,-1,-5,6,-11,13,0,-9,1,-2,-3,-4,2
33,3,14,-23,31,7,-6,-4,23,0,1,-10,32,-14,-8,4,1
-4,0,8,-8,-5,-3,6,-3,9,4,3,-10,2,7,-5,2,1
26,-22,7,-11,-4,3,9,-8,18,0,-11,-14,15,11,-25,-7,1
-33,-15,10,11,1,2,18,-6,-50,-42,-30,-51,-43,-9,-9,-31,0
-24,-33,-42,-53,-59,-66,-52,-48,-41,-55,-61,-58,-52,-36,-24,-13,0
1,-7,1,7,1,-4,1,4,-2,3,9,13,-2,5,17,4,3
2,-3,-1,-11,-7,-2,-8,3,1,6,-3,-9,-1,8,-12,1,3
-87,-75,-62,-40,-29,-3,10,0,-9,-12,0,31,45,49,47,40,0
-10,5,-2,5,-3,-1,-1,3,-7,-4,1,-4,-3,3,-10,-4,1
134,113,87,80,85,94,85,61,32,7,-12,-16,-10,-2,6,8,0
-2,0,-1,-5,4,-3,-6,-3,-1,2,2,-17,-2,-5,-6,0,3
32,37,43,-27,17,33,55,-20,35,17,41,-60,14,21,13,-14,1
3,-6,-1,-11,6,-5,-6,-10,0,1,-1,-5,-9,3,-1,1,3
3,7,-1,-1,11,1,-3,-2,-4,12,4,1,10,3,1,-1,2
3,-15,-44,-79,-105,-110,-107,-93,-71,-49,-28,-11,-12,-44,-75,-90,0
68,104,73,34,-12,-26,-38,-36,-67,-88,-25,31,18,-4,6,-29,0
12,7,-7,-8,10,5,-10,-1,5,14,-6,-18,12,-5,-12,0,1
65,97,121,106,89,94,71,5,-33,-38,-39,-32,-14,-7,-4,23,0
-7,3,8,-17,-9,11,-10,-5,-8,-2,3,0,-20,4,3,6,3
-32,0,-5,-5,-46,5,1,-1,-45,-15,-8,-6,-33,-32,-9,0,2
-9,-9,3,-11,-7,0,-21,3,4,-9,9,-14,-4,-6,2,-1,1
-15,2,-11,-2,-11,-10,-5,0,-7,-7,-4,-8,-16,-3,-3,-4,2
14,-11,-7,19,19,-3,-5,4,7,-7,-33,40,17,-7,-13,10,1
10,-10,-5,4,12,-8,-6,1,-11,-1,-12,16,0,-6,-2,0,1
-16,-35,-44,-18,26,65,77,51,26,-2,-30,-42,-53,-46,-35,-8,0
6,7,11,-20,1,13,1,-11,-4,1,8,-17,-2,1,-5,-6,1
29,-6,2,14,35,-8,3,9,44,12,5,14,47,17,7,4,2
-100,-97,-86,-74,-61,-56,-49,-39,-29,-21,-11,1,-1,-7,-14,-23,0
7,-1,7,2,5,2,9,-1,4,11,6,-7,6,5,1,0,3
26,9,-4,21,34,-1,4,16,3,9,4,7,16,1,-6,12,1
74,86,45,-11,-45,-50,-35,-8,2,-13,-37,-58,-65,-64,-31,21,0
-3,3,13,-10,1,-5,2,5,-9,2,23,-4,-1,5,9,-1,1
8,-63,-107,-117,-105,-51,3,55,92,113,123,125,139,138,113,49,0
-13,-27,-18,32,-10,-11,-7,2,-11,-20,-36,34,-6,-21,-9,3,1
4,1,3,-8,10,-1,1,-10,6,2,-5,-9,11,-4,-9,-3,3
-51,-39,-38,-29,-23,-1,43,92,122,104,73,31,-3,-51,-91,-120,0
42,2,-19,-11,3,21,39,51,63,76,100,101,90,60,16,-28,0
34,-13,-48,-54,-72,-108,-92,-41,-8,31,66,51,-1,-25,-32,-41,0
-52,-64,-49,-19,17,40,60,77,68,51,30,19,11,3,9,15,0
22,2,-6,-8,-16,-27,-32,-44,-57,-59,-56,-43,-17,8,14,24,0
1,16,-14,7,-2,6,6,1,4,-5,-7,6,-1,-6,-4,9,1
30,1,-3,2,37,-7,-4,4,46,-1,0,10,44,9,-3,6,2
-7,12,-3,3,1,7,-13,9,-8,5,8,-2,2,3,0,-1,1
5,-2,4,-6,7,-1,1,-7,-4,0,4,-2,-2,-5,7,-2,3
-3,-16,-4,-4,10,-22,-6,-7,1,-4,2,1,2,7,-3,-6,2
-4,4,-1,3,-17,8,3,8,-7,3,-5,-1,-6,-4,-6,7,2
101,82,62,59,67,80,103,115,117,102,103,116,122,109,87,77,0
-111,-112,-104,-87,-63,-57,-46,-47,-56,-82,-96,-107,-107,-92,-67,-58,0
2,4,8,-8,12,2,3,-10,4,1,3,7,10,-7,7,5,3
-23,-16,-15,-27,-46,-56,-47,-32,-2,23,37,32,27,19,-3,-28,0
-1,17,10,-5,-6,10,14,3,0,16,5,0,0,12,6,3,2
23,-3,-8,4,31,-12,0,-2,41,4,-7,3,42,0,-2,0,2
1,-1,-3,-8,8,-4,-10,-5,-6,-9,-8,-9,4,-18,-15,-2,3
17,0,-3,13,17,8,-5,-3,-15,-20,-14,-20,-42,-48,-40,-48,0
23,2,5,-16,-3,13,-5,8,18,19,2,-3,28,7,0,-1,3
-11,-2,4,4,8,-9,8,-12,21,23,13,9,-4,52,23,-5,1
3,8,0,-21,-5,1,-8,1,1,11,10,-25,13,1,-4,-13,1
1,-2,-4,-3,2,-8,-4,2,6,-7,-1,0,-6,8,-4,2,2
-3,-7,-1,4,-9,2,0,0,0,1,-8,-6,5,-12,-3,-3,2
-1,-7,2,2,-7,0,-3,7,-4,-2,6,7,-1,2,6,1,3
-2,-5,-2,-3,-4,-5,1,-4,3,-10,-9,2,-8,-2,-6,2,2
52,82,72,96,132,127,71,54,85,77,16,-7,40,83,63,63,0
1,1,-5,-3,3,-7,-2,1,7,-7,-2,1,-7,8,-3,1,2
-64,-64,-69,-1,14,22,0,55,67,107,125,77,34,-43,-103,-120,0
-7,-5,-10,-3,-16,-6,1,-4,-12,-8,-18,10,-14,-5,-13,4,1
-95,-84,-59,-40,-37,-27,-10,4,12,19,27,31,26,19,-7,-28,0
-95,-54,13,81,147,174,153,91,-177,-177,-161,-127,-80,-12,58,98,0
12,-2,0,-6,4,3,-2,-1,3,-5,-3,-9,1,-11,0,-5,2
-49,-57,-60,-68,-54,-46,-31,-29,-31,-36,-35,-32,-40,-52,-71,-97,0
-4,2,1,-10,-8,1,-2,-3,-2,1,-2,-11,-12,4,-5,-1,2
9,7,8,-3,14,0,9,-1,17,10,15,-42,9,4,-4,-9,1
51,71,45,-1,-47,-89,-106,-91,-58,-44,-18,36,67,70,51,14,0
-2,-8,4,-7,-7,2,-6,-2,-2,1,2,-9,-4,5,-7,-2,3
-5,-4,5,12,9,-9,7,2,-2,5,-3,7,14,-7,-2,2,2
17,-5,-8,-3,10,-5,-11,6,22,-2,-11,0,8,8,-9,2,1
0,-1,-2,-10,-6,3,-4,-7,-5,-1,-2,0,-3,-7,2,1,3
-8,-5,-2,-6,-12,-6,-2,0,1,-10,-3,-5,-3,-6,0,-8,2
4,3,-3,13,8,3,5,3,1,17,-2,4,14,7,-4,2,1
-24,-21,-9,5,31,57,79,87,78,72,48,15,-23,-54,-74,-78,0
-7,9,-5,-2,3,-2,-9,3,-10,-2,0,2,-12,5,-2,-1,2
12,-3,4,16,22,2,-3,8,19,2,-2,5,16,9,-2,1,2
21,1,-6,-34,-11,15,-16,-7,17,11,3,-8,25,6,-6,-3,3
-7,-9,-4,-1,2,-20,-1,-3,-14,-7,-3,9,-9,-6,-5,6,3
3,1,-2,-6,7,-2,-6,-3,4,-1,4,-14,0,-4,-5,1,3
2,6,8,9,-5,17,7,6,11,-5,8,8,7,6,8,2,2
13,-1,18,-3,-4,6,30,-4,19,10,22,-21,24,15,-8,0,1
18,25,16,-24,-1,38,13,-16,4,8,27,-34,-2,20,17,-30,1
9,11,-5,-12,-4,9,7,-9,3,-7,2,0,-8,4,1,0,1
47,13,4,5,43,15,8,3,42,16,7,16,54,11,5,10,1
3,9,3,4,7,3,-4,14,0,12,4,-4,7,7,2,-4,3
-35,-31,-21,-1,-29,-29,-18,-13,-24,-18,-12,2,-30,-4,-11,-7,3
32,85,93,78,64,54,41,-4,-68,-156,-228,-261,-243,-190,-136,-53,0
51,88,85,88,76,37,10,4,-2,14,82,132,124,98,75,27,0
-8,2,1,2,-7,1,4,-1,2,-8,1,2,-11,8,2,-3,2
-6,-2,-3,-4,-12,3,-11,4,-7,8,-5,-9,-7,-3,-2,-2,2
109,95,92,109,110,97,52,16,0,-1,9,31,26,52,76,103,0
-7,-5,-16,0,-14,-6,-13,5,-11,-11,-25,-2,-15,-14,-23,4,1
-1,8,-2,1,6,-3,-1,4,-1,7,-3,-12,2,-1,-12,2,3
2,-3,5,-8,-8,2,-4,7,3,-3,1,-5,2,-1,0,-5,3
11,-9,-18,3,9,-9,-17,3,8,1,9,-10,3,13,2,-10,1
11,-10,0,7,7,-9,-2,11,15,-1,-4,-3,17,-1,2,-10,2
3,1,-2,-4,7,-2,-5,-2,9,-6,-4,7,-1,-2,8,2,2
5,6,-8,7,-4,8,-1,6,7,-3,-9,18,12,-9,5,4,3
0,-4,-3,3,4,-8,-3,3,5,1,-2,2,13,-4,-5,2,2
2,7,-6,23,-1,5,14,8,9,-2,-1,7,6,-2,11,-1,3
3,-12,-16,2,-1,-6,-18,1,0,0,4,-4,1,6,5,-11,1
7,2,0,-1,-2,12,2,-4,-4,1,-1,2,-7,11,-5,-1,2
5,-2,4,-3,3,-1,0,2,4,7,5,-11,9,-1,-1,-2,3
13,-9,-43,-93,-134,-159,-156,-132,-105,-61,-12,35,67,81,73,30,0
-15,-11,-1,21,-6,-9,2,8,-11,-12,-13,8,-6,-11,-20,8,1
5,-7,-1,2,-5,7,0,-3,-4,-1,0,3,-5,7,-4,0,2
5,6,5,3,13,-2,10,-3,-5,1,6,12,4,2,8,0,2
-12,-19,-13,2,-10,-17,-22,6,-9,-13,-20,13,-3,-8,-18,0,1
2,2,-9,13,1,-4,3,7,3,-22,-19,12,8,-26,-14,7,3
-13,-30,-19,35,-11,-11,-5,1,-10,-19,-33,31,-8,-18,-9,3,1
19,13,16,13,14,7,-7,-12,5,27,30,11,-9,-17,9,59,0
-8,-1,4,1,-14,6,3,1,-11,-5,-2,-2,-15,-1,0,-4,2
-3,13,12,11,3,9,20,1,9,8,7,3,2,10,13,0,1
-36,-1,-10,-8,-48,0,-4,-3,-38,-27,-10,-10,-32,-43,-9,-3,2
-62,6,52,80,85,71,46,-2,-64,-119,-136,-135,-111,-76,-33,4,0
14,16,1,-17,18,13,-14,-3,3,7,10,-13,2,5,1,0,1
3,-5,1,-3,-7,8,-1,-5,-5,-6,4,3,-5,2,-2,1,2
-8,4,-8,-8,-3,-14,-6,3,3,3,14,-31,-2,-2,-5,-2,1
-10,-57,-76,-75,-42,1,44,36,29,46,48,44,51,43,21,27,0
7,-4,-4,-13,-2,6,-22,4,-18,-5,6,-3,-13,-5,10,-13,1
141,163,173,164,142,115,80,55,36,40,34,44,59,77,96,117,0
-6,13,8,13,-12,14,10,18,-3,10,0,-1,-4,7,-3,5,3
29,-6,1,8,32,-3,-3,5,53,10,5,8,49,25,-1,2,2
-7,-22,-11,25,-1,-10,-7,4,2,-10,-38,33,3,-8,-21,13,1
-3,3,-1,2,1,2,1,-2,1,-9,2,5,2,-9,-4,9,3
-9,-2,3,-6,-4,-5,-7,2,-11,8,3,-10,3,-3,-9,-2,2
-16,6,-5,-6,-15,1,-6,-1,-22,-2,2,-8,-23,-1,-6,-1,2
4,-5,9,0,-11,14,5,0,-1,1,4,3,-3,6,7,-3,2
6,-19,2,-6,-3,-12,-5,2,0,4,-8,-21,-5,-3,-21,2,1
39,66,77,56,9,-35,-77,-92,-90,-85,-81,-80,-69,-65,-54,-32,0
-9,2,1,9,-6,1,4,3,-6,-7,1,-4,-3,-3,-8,-3,1
-38,-93,-151,-204,-264,-260,-199,-149,-113,-66,-2,6,2,-44,-28,-32,0
-41,-43,-36,-37,-27,-17,-20,-34,-57,-77,-92,-89,-76,-60,-54,-49,0
7,2,4,-16,3,-1,-13,7,-2,11,4,-32,-19,15,-18,4,3
53,-4,-11,28,47,31,7,-18,26,-14,-5,38,25,6,15,0,1
-1,-7,-5,-10,-9,-7,-9,3,-6,10,2,-17,-5,5,-6,-6,1
-13,4,1,39,-5,-7,15,27,-3,-31,-13,25,2,-30,5,2,3
-89,-87,-86,-87,-74,-57,-44,-32,-34,-42,-49,-58,-64,-84,-94,-110,0
6,2,2,-14,-2,1,-3,-1,6,3,-1,-8,-4,11,-4,-3,3
58,67,95,123,130,116,120,134,126,93,57,17,-16,-24,-3,17,0
0,-12,3,0,-12,4,0,-1,21,21,-6,-22,2,12,16,-16,1
1,3,2,9,6,-1,-2,12,6,3,2,-4,7,7,-1,-6,3
0,42,20,4,-13,28,11,39,2,30,3,-13,-1,13,1,8,3
-52,-13,28,59,65,42,-33,-66,-76,-70,-55,-28,9,48,60,66,0
79,119,132,174,168,111,85,44,-8,-14,-8,-33,-51,-26,0,2,0
6,-5,0,-4,7,-3,-5,-2,-5,-8,-9,4,-5,-12,-7,6,2
11,-4,0,21,36,-12,8,-3,11,5,0,26,34,0,10,-2,3
-9,-12,-7,-4,-8,-20,-4,-2,-6,-24,-11,-4,-21,-17,-6,1,3
-6,9,13,10,-26,26,13,14,-4,7,7,11,-13,13,14,7,3
71,29,1,11,78,24,7,3,57,21,14,17,66,25,16,2,1
-2,11,12,11,3,10,19,1,9,6,7,3,1,10,13,1,1
2,-1,-1,0,5,-2,2,-4,-2,-1,1,2,4,-3,1,-1,3
-40,-22,13,41,40,5,-30,-59,-71,-64,-50,-34,4,32,59,67,0
0,-6,-2,-3,-18,11,-4,0,-2,-2,0,-13,-7,2,-2,-9,2
-6,14,7,-16,4,2,-5,-2,1,3,-2,-9,-4,3,-1,-5,1
-4,-14,-2,3,-7,-6,-6,2,-4,-1,1,7,1,3,-3,1,3
31,12,-20,-32,-48,-45,-28,57,66,85,97,67,15,-24,-37,-27,0
7,-11,-23,4,-6,-3,-18,2,-5,-17,-5,4,-2,-9,-13,-1,1
0,0,-2,-5,-5,3,-3,-2,-2,-9,-5,0,-10,-1,-5,1,2
80,100,93,43,-37,-63,-48,-28,-8,9,23,27,41,41,4,-7,0
-5,14,10,9,2,8,17,2,7,13,8,-1,4,16,11,-3,1
3,-4,-1,0,-3,2,-2,1,-6,-7,1,-4,-7,-1,-6,-2,2
-12,9,-2,7,-1,1,1,2,-4,-3,3,-2,-2,-6,3,-2,2
24,3,-12,-24,-33,-28,-18,-10,7,24,37,53,69,102,121,134,0
9,11,1,-32,-16,9,-4,-1,3,4,-15,-11,-23,8,-12,7,1
13,-2,6,1,18,-4,5,-1,21,3,4,9,28,4,5,0,2
6,-18,-11,17,-5,-11,2,7,8,-25,-14,20,17,-27,-4,3,3
-13,-4,1,-10,-17,1,-6,-5,-11,2,-2,-12,-12,-5,-4,-1,2
-6,1,0,-3,-6,-1,-2,1,0,4,-1,3,1,3,-1,3,3
-32,-6,20,38,46,41,44,42,46,52,58,51,25,1,-27,-45,0
3,-11,-6,9,35,-9,-11,-19,-2,1,10,30,18,5,20,-4,3
2,0,-4,5,3,-4,-2,6,8,-7,-2,4,9,1,-4,-5,3
-7,0,-3,3,-7,-4,-9,12,1,5,14,-3,-14,17,12,3,2
-7,-20,-8,-18,-25,0,-11,-16,8,-22,-1,-2,1,-9,-4,-5,3
8,10,-4,7,2,15,20,-16,7,9,-6,0,6,8,-3,-2,1
-3,-2,0,-2,-6,1,-1,-1,-4,1,-2,-7,-10,-4,0,2,2
36,0,-36,-61,-71,-60,-38,-29,-31,-40,-30,-12,24,49,61,67,0
58,50,27,17,11,-11,-51,-89,-103,-113,-109,-96,-67,-37,-33,-41,0
-8,-9,-3,6,-1,-1,-7,-6,10,6,-33,6,-8,-4,-7,8,1
10,-4,3,-28,-15,17,-13,-8,-2,9,9,-14,-18,14,0,5,3
7,5,6,7,18,2,3,3,11,11,5,8,27,-4,8,3,2
91,104,124,97,95,116,50,-16,-37,-37,-71,-54,-26,2,26,97,0
18,4,7,-4,10,19,8,-12,5,17,7,-24,8,4,-14,7,1
-6,12,16,1,-36,-79,-112,-121,-135,-136,-107,-83,-60,-57,-77,-121,0
10,0,-7,7,10,-2,1,0,7,5,5,1,14,-1,1,4,1
-5,8,-4,5,-2,5,2,1,0,-4,1,5,11,-5,-2,-3,2
13,-7,-23,-25,-10,3,20,25,16,2,2,16,26,22,19,28,0
-19,-8,-7,-11,-12,-13,-17,-3,15,-11,-6,-19,9,-14,-17,1,1
8,10,-12,-48,-71,-76,-70,-58,-62,-81,-98,-91,-73,-49,-31,-41,0
2,1,-5,5,-2,-1,2,4,3,1,-4,0,-2,5,-5,2,3
-24,1,9,-2,-3,-9,9,-13,13,27,9,2,-7,50,14,-6,1
-2,0,-8,-15,-19,3,-6,-3,-11,10,-1,-16,-7,-5,-2,-4,2
-12,-1,-25,31,5,-19,-7,14,-2,-14,-38,48,5,-20,-10,19,1
6,-7,-5,-5,-1,2,-19,7,7,15,-1,-20,12,-5,-6,1,1
-7,21,12,-17,-2,4,-2,9,-6,22,5,-20,-9,8,2,0,1
3,0,-1,-11,1,-1,-8,0,-2,-7,-1,-12,-4,-3,-15,1,3
13,-26,-33,6,-3,-17,-27,5,31,-31,-59,1,5,-33,-42,12,1
-1,-15,-20,5,-13,-5,-12,-1,15,-13,-14,-8,-5,6,-19,-3,1
44,12,-8,-12,41,4,-13,5,25,7,-5,0,19,9,-8,7,1
0,-1,2,3,2,2,4,-4,-2,0,5,10,4,-2,7,5,3
6,-6,1,3,1,0,4,-1,-1,1,-1,3,-3,-2,4,3,2
4,-13,-13,29,4,-12,7,10,8,-28,-11,28,18,-24,6,-4,3
133,123,70,-5,-70,-113,-140,-156,-162,-156,-119,-60,-1,41,81,95,0
-81,-117,-146,-175,-205,-199,-161,-143,-124,-87,-46,-18,21,42,48,18,0
7,-2,4,0,9,-2,1,1,5,-1,-1,-3,4,-4,1,0,2
-5,4,-17,-5,-6,4,-17,-4,-7,-7,-10,-18,-18,-1,-15,-7,1
4,10,4,5,-12,8,3,22,13,10,3,-12,-2,10,4,3,3
6,61,111,128,115,86,76,81,70,39,3,-38,-69,-75,-70,-51,0
-7,-9,-10,24,20,-15,5,-12,-15,-9,-1,42,5,-14,17,10,3
1,-7,1,10,19,-8,5,-11,-2,4,6,17,8,5,9,2,3
-3,-16,3,-3,-12,-4,-2,-2,-7,-12,-10,8,-9,-11,-1,0,3
2,19,10,20,13,3,13,22,12,17,2,2,25,5,9,-8,3
-112,-90,-65,-63,-78,-83,-77,-82,-68,-34,-17,-23,-33,-56,-96,-113,0
102,57,5,-49,-90,-109,-122,-107,-59,1,53,76,97,121,129,116,0
3,1,5,2,7,-2,8,-3,9,-6,3,9,10,-2,1,5,2
113,108,100,85,78,73,83,97,123,157,158,134,92,61,47,50,0
-1,-5,-5,0,-9,-11,3,5,3,7,-3,-3,3,6,-8,2,2
2,10,5,-6,-27,-33,-23,-5,5,16,9,4,2,1,-11,-40,0
43,63,67,53,30,12,19,31,35,29,3,-22,-33,-39,-39,-45,0
160,140,114,105,103,104,108,106,95,70,48,22,10,-1,-7,-4,0
1,-5,-4,-12,11,-10,-11,-10,-7,3,2,-11,-9,-1,-6,3,3
0,-4,-4,4,4,-8,-3,4,5,5,-3,1,14,-3,-4,1,2
-1,0,2,5,-4,0,-5,14,-5,-4,0,6,1,0,-3,1,3
-3,19,-2,7,2,13,15,-8,14,-22,-25,13,-9,-14,-6,11,1
6,7,6,-12,1,5,12,-11,1,-3,20,-14,-11,4,16,-5,1
76,71,69,55,41,21,22,47,71,73,72,75,86,84,78,65,0
-2,19,-1,11,1,9,13,4,-1,3,1,3,8,-7,5,0,2
-36,-28,-5,13,33,45,51,43,40,26,7,7,14,19,13,11,0
1,3,-1,2,-5,7,3,1,-3,2,4,-5,-8,4,2,2,2
-13,3,2,36,-11,-5,14,30,-3,-28,-12,18,-3,-26,1,2,3
5,4,-9,-20,6,-1,-16,-9,22,6,-2,-31,17,3,-17,-8,3
5,1,3,-10,-6,9,-4,-1,4,-1,-4,-6,1,-1,-1,-7,3
-4,-2,-2,-7,-11,-3,4,-5,-17,7,-2,1,-11,-9,7,3,2
9,-5,-5,2,6,-7,-1,3,8,-7,-1,4,6,-5,3,-1,2
11,22,4,-43,-52,-28,-33,-26,-87,-94,-36,-48,-86,-118,-130,-63,0
-2,-3,-3,-3,-13,0,-1,3,-1,8,1,3,-2,5,6,4,2
2,15,11,-11,4,6,12,-5,-11,11,11,14,4,5,19,-3,1
-8,-10,-2,-11,-14,6,-8,-13,-8,-12,3,8,-5,-6,7,-5,3
12,46,15,-57,-4,36,-4,-12,-5,18,29,-48,-10,24,5,-25,1
2,-9,-3,-3,-6,-2,-4,-1,6,2,3,-11,3,11,-5,-9,1
1,10,8,6,9,5,-1,12,-20,12,6,3,-8,3,3,3,3
-1,1,-3,-7,7,-3,-10,-3,-4,-10,-7,-6,8,-20,-12,-3,3
-6,-6,-4,5,-18,6,0,2,8,-1,-6,-7,8,-4,-8,-3,2
25,5,5,7,42,-5,9,-4,39,11,1,7,40,19,2,-3,2
8,6,5,27,41,-11,20,-4,17,15,5,26,46,6,13,-3,3
-14,-8,-3,16,-11,-3,-4,9,-19,-6,-21,16,-8,-9,-17,3,1
-5,0,-6,-11,-2,-12,-7,-1,-6,7,-9,0,-6,-5,4,-2,2
-31,-37,-15,-5,-4,6,-14,-31,-33,-43,-42,-37,-8,8,23,42,0
1,-10,2,3,1,-2,3,-8,-4,-14,-6,22,1,-9,4,2,3
-14,3,0,41,1,-8,16,22,-3,-35,-14,32,6,-34,7,1,3
6,-1,-2,-7,11,-5,-1,-11,5,-3,-5,-3,9,-5,-3,-7,3
42,34,33,48,67,69,62,41,40,63,95,101,92,83,76,64,0
-3,1,-9,-4,-8,2,-5,-4,-1,1,-6,-1,-3,2,-10,3,3
6,-1,1,26,39,-14,13,-5,11,5,1,32,38,-1,13,-3,3
5,19,-1,17,6,16,15,4,14,14,8,-13,11,11,1,1,3
-13,2,6,-6,-51,-102,-157,-179,-176,-142,-81,-14,41,96,103,65,0
-5,-9,-5,6,-3,-8,-4,3,-2,-11,-2,6,1,-6,3,-6,3
37,26,16,19,41,83,70,61,49,12,-20,-34,-54,-65,-62,-52,0
3,-3,9,0,-8,10,18,-11,5,-6,20,-16,-1,-1,9,-5,1
44,6,-20,-45,-48,-2,58,103,124,125,101,50,14,3,-2,12,0
56,33,20,-45,31,20,18,-4,34,32,39,-56,18,34,20,-23,1
-24,-14,-3,16,38,48,41,33,17,0,-15,-20,-35,-44,-52,-64,0
-7,9,31,56,79,97,107,95,74,36,-13,-60,-91,-105,-110,-95,0
-3,0,2,-5,-7,1,-2,2,2,-18,-13,9,-5,-4,-9,-3,3
17,28,36,30,9,1,5,14,16,18,19,17,21,31,32,27,0
-122,-129,-136,-139,-132,-109,-105,-94,-68,-54,-38,-20,-24,-65,-133,-182,0
19,2,6,9,29,4,2,2,32,8,16,7,37,15,9,1,1
-6,2,7,-15,0,-8,-1,-4,0,1,2,-6,9,-5,-6,-1,3
8,-7,1,7,21,-11,8,-8,4,-6,4,9,4,7,1,-2,2
4,-4,-2,-3,-3,1,-1,-2,-5,-5,0,-4,-7,-3,-4,-2,2
-2,9,24,-7,-4,18,22,-12,8,5,17,-12,5,13,5,-6,1
1,-5,2,6,7,-3,2,-2,-19,2,-3,6,-11,-4,-2,1,2
0,-4,6,-6,11,-7,-1,-7,-7,0,-1,-4,-12,-5,0,4,2
2,-4,0,-2,7,-8,-2,-1,4,-7,4,4,11,-8,-5,5,2
10,-18,-25,4,-6,-6,-21,4,-1,-19,-8,3,0,-10,-14,-2,1
-22,0,8,1,-20,-2,6,5,-21,9,35,-44,-19,8,6,-16,1
-2,2,7,-3,-3,5,5,-2,-2,3,-2,-2,10,-6,-1,-6,2
-16,5,-2,-5,-15,3,-4,-2,-22,9,5,-5,-13,4,-1,-3,2
-5,-6,-5,3,6,-6,1,-13,4,-14,0,5,-3,-7,4,1,2
2,1,1,7,0,-3,2,13,11,-3,4,11,17,7,5,-7,3
6,16,9,8,10,19,6,5,8,9,8,4,10,11,4,2,3
2,-2,-5,-6,8,-2,-3,-14,-3,-2,-1,-4,-7,5,-9,1,3
-24,-37,-35,-32,-24,-5,16,41,64,76,75,69,64,62,47,36,0
51,35,19,14,24,48,70,82,81,71,75,86,101,119,136,135,0
25,-4,-10,4,32,-12,-2,-2,46,4,-9,2,46,1,-4,0,2
-1,7,-5,1,-4,11,6,-11,-2,5,1,-9,-10,12,-2,-7,1
101,77,52,27,20,5,-6,-21,-42,-59,-68,-59,-41,-19,18,37,0
59,26,6,-7,-2,0,-5,-14,-7,24,50,65,73,78,88,111,0
-7,3,-5,-12,-8,-3,-2,-7,-3,-14,1,-8,-11,-9,-6,3,2
5,5,1,-7,2,6,-2,-1,-1,3,6,-4,-10,11,-10,12,2
2,-9,-10,4,-15,-2,-10,13,-2,5,-1,-6,-3,19,-12,-9,2
-6,11,8,-15,-25,16,8,-2,-13,8,8,-15,-16,9,0,-6,3
9,10,1,13,12,8,3,10,4,17,8,5,10,15,11,-3,3
-61,-71,-59,-42,-30,-37,-42,-58,-59,-64,-73,-85,-82,-41,15,71,0
23,6,25,-14,32,2,3,3,20,8,11,1,39,-11,19,-6,1
-56,-25,-6,41,74,66,6,-60,-142,-187,-168,-149,-119,-77,-25,-10,0
26,6,-12,-13,21,-5,-8,-2,-5,2,14,6,17,11,-6,-4,1
12,-18,-23,23,14,-7,-18,7,5,-9,-51,43,9,-10,-24,13,1
4,20,-4,-12,4,6,-19,17,-4,10,-6,-8,-2,-9,-1,4,1
0,3,1,4,-7,-2,10,6,5,2,3,10,2,-1,11,8,3
-9,-23,-7,-1,-35,-8,-1,2,-9,-9,-12,-13,-24,5,-17,-6,3
-4,13,14,-2,3,14,7,-3,-5,29,19,-21,9,14,17,-19,1
42,28,37,49,28,-1,4,25,31,61,104,117,109,90,49,5,0
-16,0,0,39,6,-12,17,11,-8,-41,-14,43,11,-41,9,1,3
-7,6,-3,3,-2,3,-2,0,-6,-5,3,-2,5,-13,-1,0,2
-2,-4,-3,-7,7,-14,-12,3,-10,-3,-1,-8,-8,-13,1,-1,2
82,91,100,99,78,43,19,9,7,8,13,13,8,14,12,16,0
-9,13,-2,0,-9,5,8,-1,12,-2,5,-3,-3,16,-1,2,2
5,-5,4,8,24,-8,4,-8,2,4,6,15,11,4,8,4,3
11,20,16,-6,-7,5,22,44,91,133,223,194,222,157,118,153,0
88,76,59,39,25,6,-22,-45,-62,-60,-42,-9,28,53,87,109,0
-1,-11,-16,-1,-14,-3,-10,-3,19,-7,-11,-16,-6,10,-14,-4,1
3,-9,-1,-11,-4,1,-10,-5,-3,-7,-7,10,-6,-4,6,-2,3
14,12,9,8,-16,22,8,30,4,24,1,-10,8,10,5,-4,3
-7,-7,20,5,-10,12,15,-6,9,26,6,-18,2,11,22,-12,1
10,6,-9,-13,3,9,-24,6,-18,4,3,-3,-11,0,14,-17,1
-12,-2,2,-6,-13,-2,-6,2,-6,4,-1,-11,-15,9,-4,-3,2
25,3,6,-10,6,10,-2,9,18,21,4,-3,29,6,3,1,3
-2,10,11,-7,-8,19,9,-7,-10,2,4,2,-9,-1,5,3,2
14,-1,-11,25,22,-14,13,6,10,9,-7,5,17,2,-3,2,3
5,-16,-14,23,0,-13,4,8,9,-30,-13,25,17,-28,3,-1,3
-4,8,-1,2,-8,7,4,3,5,9,-2,5,5,10,-2,3,2
69,74,82,77,61,54,47,39,17,8,6,16,21,35,28,32,0
-24,-52,-64,-62,-67,-75,-71,-60,-39,-18,15,55,107,163,184,165,0
-118,-108,-107,-95,-79,-60,-60,-67,-75,-88,-91,-91,-91,-96,-102,-107,0
-2,-1,-6,-2,-8,-3,-4,5,-3,-7,-11,3,-10,-3,-9,6,3
32,-8,1,8,34,-5,-1,5,50,13,6,10,49,26,1,2,2
-13,-13,-28,25,-19,-9,-17,16,-21,-17,-36,40,-18,-24,-9,18,1
-20,1,-16,10,-12,-3,-17,6,-9,15,-30,-4,3,-20,-27,16,1
1,4,5,-4,2,4,10,-10,-6,5,-1,-8,-1,-4,0,-4,3
15,1,-4,14,6,0,2,19,8,-15,-13,0,9,-20,-12,3,3
0,2,3,-6,-2,7,-5,-1,4,-7,-1,7,6,-6,1,3,2
-1,-4,16,15,9,-7,23,1,-8,18,38,8,-6,36,46,-20,1
-24,-44,-64,-68,-62,-41,-24,14,39,100,161,167,119,40,-30,-79,0
138,159,169,152,137,109,51,-6,-54,-83,-93,-88,-76,-38,17,87,0
-3,17,27,18,0,-24,-51,-69,-80,-89,-102,-106,-111,-108,-89,-50,0
-47,-50,-44,-16,-7,-9,-16,-20,-16,-31,-27,-4,5,26,40,42,0
29,5,-28,-36,-36,-56,-55,-10,43,100,122,124,80,0,-61,-76,0
6,-5,-1,6,6,-2,5,-4,-2,2,-4,0,-9,6,-2,0,3
5,11,13,-8,-13,20,0,14,5,6,1,-6,-3,7,0,2,2
-58,-41,-6,25,39,31,33,46,57,55,54,44,40,41,32,22,0
2,-4,2,-4,8,-7,-1,-6,-2,8,-1,0,-10,7,7,1,3
-10,-14,-26,-52,-72,-85,-91,-71,-46,-16,-6,2,5,7,5,-5,0
12,11,4,-20,8,7,1,-8,9,21,10,-7,20,21,2,-10,1
1,11,14,-1,-8,21,6,6,-2,5,-3,11,6,1,3,2,2
-3,30,15,-4,4,17,16,-1,12,9,5,-7,12,-2,6,3,1
2,-15,-9,2,19,-18,-2,-19,7,-3,5,13,5,6,6,5,3
-5,-1,-4,-5,-10,-1,-1,-2,-13,2,-5,-3,-10,-6,1,-3,2
7,40,44,12,-9,-32,-61,-70,-57,-40,-14,18,37,37,29,20,0
24,23,28,42,51,53,49,44,34,21,23,19,9,-1,-8,-15,0
7,-5,5,0,-3,4,0,6,1,4,6,1,-5,11,10,-4,2
19,1,16,6,23,10,13,-3,19,2,-6,22,30,2,2,4,1
-6,-8,-6,7,-4,-9,-4,3,-2,-10,-2,7,2,-6,3,-6,3
-16,4,-1,-6,-9,-9,3,-4,-11,-7,-2,-2,-20,-1,-3,1,2
-2,3,-2,0,8,-3,-4,-2,8,-5,-4,8,-1,1,5,3,2
-1,-4,-9,-4,-7,-2,-6,-3,3,-10,-12,-15,-5,-13,-18,1,3
4,-10,-9,-8,-1,1,-18,-5,-12,-12,2,-7,-9,-16,-5,2,1
1,2,-1,5,-4,6,4,1,-4,3,4,-2,-7,4,1,3,2
3,-9,-7,-14,10,-11,-6,-19,-5,-6,-3,-13,-10,-4,-10,-3,3
36,56,81,53,21,65,80,82,63,11,-16,-45,-55,-60,-35,-40,0
6,4,-1,2,9,1,0,1,7,-2,-3,7,15,0,-5,-1,3
4,-17,-4,-9,9,-11,-9,-13,-5,-3,-6,-5,-7,-4,-13,5,3
-3,16,6,11,-14,20,10,14,-3,5,2,-2,-6,3,-2,7,3
-2,-5,-1,0,4,-5,-5,-2,-2,-6,-4,-1,-6,-8,3,-1,2
4,4,-10,1,21,-5,-11,-7,3,-1,7,-8,17,2,-13,-4,3
10,16,19,-14,18,10,9,-5,0,16,26,-22,2,16,7,-5,1
1,9,9,-30,-6,5,-3,-5,-2,19,9,-43,-6,15,-16,-10,1
110,74,15,-37,-86,-106,-107,-91,-67,-45,-17,-14,-7,-22,-44,-55,0
-67,-39,11,65,98,100,78,50,27,14,-3,-26,-48,-62,-71,-63,0
-41,-61,-59,-61,-37,-33,-48,-35,-19,-16,-30,-56,-87,-100,-94,-85,0
2,-19,-29,18,-1,-8,-38,18,5,-5,-30,9,20,-12,-28,-1,1
-12,-16,-16,16,-11,-9,-14,6,-9,-19,-37,32,-8,-22,-11,7,1
-8,-11,-3,-13,-18,5,-9,-14,-3,-17,2,5,-3,-7,4,-6,3
9,8,0,2,-17,21,10,6,1,13,2,-3,-7,14,0,6,3
6,2,-9,-13,0,6,-14,-6,4,12,2,-9,-4,15,-2,-1,1
11,-15,-25,-5,-7,-4,-31,7,16,-12,-36,4,-6,-7,-24,10,1
-5,-14,-40,-68,-105,-129,-151,-159,-139,-100,-69,-58,-57,-51,-24,13,0
2,-2,-2,-13,8,-2,-9,-12,-9,-4,6,-14,-24,0,10,-7,3
-79,-81,-74,-57,-37,-10,13,21,26,14,3,-2,-1,-4,-13,-23,0
17,22,25,-17,15,24,33,-25,23,-20,2,-8,1,-3,2,-3,1
45,25,8,9,57,26,11,-6,49,27,12,7,56,30,9,0,1
-3,-5,-10,5,6,-16,-7,5,0,2,-4,-2,-5,8,-4,-2,2
20,-11,-67,-125,-150,-159,-140,-95,-45,-7,12,-2,-45,-80,-107,-124,0
8,-7,-3,-5,-11,7,-7,4,4,-5,-4,3,13,-13,-5,3,3
-11,-5,-7,17,7,-18,1,4,-1,-14,-9,12,-10,0,3,-4,3
-13,-32,-35,-38,-35,-38,-47,-53,-68,-70,-71,-64,-49,-23,5,13,0
11,9,6,-2,15,4,4,2,4,20,12,-17,19,5,1,-5,1
44,37,23,14,37,50,16,-27,-48,-59,-75,-60,-30,-31,-18,6,0
-104,-152,-181,-192,-179,-148,-100,-36,30,105,153,160,135,96,45,-13,0
-3,-8,4,6,8,-18,1,8,2,-2,2,-7,2,0,-2,-5,2
9,0,8,6,12,1,8,2,7,4,-1,6,14,-5,3,4,2
0,-6,6,9,2,-3,-2,12,-10,12,14,11,-15,20,19,4,2
3,2,-2,13,5,4,3,3,-1,16,-4,5,16,4,-6,2,1
10,7,1,2,12,0,7,1,25,3,3,9,26,-6,9,11,2
7,6,-8,-21,9,-1,-16,-7,21,8,-1,-32,17,4,-16,-8,3
-8,15,14,-4,4,-4,4,13,-6,13,12,-7,-1,9,4,1,1
-17,-13,-3,21,-8,-11,-1,9,-10,-12,-17,10,-5,-10,-22,9,1
22,-1,-13,-15,19,-7,-13,-6,0,0,3,1,17,1,-14,0,1
-22,-19,-2,42,72,98,88,65,37,21,34,44,28,21,18,12,0
4,18,12,2,8,-8,31,5,16,1,26,-19,4,7,22,-8,1
1,-5,-7,-2,-16,1,-11,13,2,9,2,-13,-2,18,-10,-6,2
8,6,-5,4,17,-1,4,-7,5,3,-1,2,5,-6,4,6,3
0,2,-2,-3,0,-2,-4,2,14,-3,-3,-7,17,-9,-4,-3,2
-2,-2,0,-3,6,-13,-3,4,-3,4,4,-5,3,5,-6,-2,3
-3,-1,-1,0,2,-3,-3,-1,-4,4,-2,-7,-2,-7,1,-2,3
20,0,8,-31,6,12,-11,-10,11,-12,0,-16,-3,1,-6,-8,1
-31,-49,-57,-43,-32,-14,7,27,27,21,31,33,3,-19,-31,-39,0
3,-9,-7,0,-8,7,-7,-4,-4,1,-5,0,-8,-2,-3,4,2
31,2,9,-12,18,5,4,3,15,4,29,-17,4,26,15,-14,1
41,10,-47,-92,-93,-64,-34,-19,-47,-77,-88,-64,-30,-9,-9,-23,0
-97,-113,-101,-99,-88,-59,-52,-66,-75,-84,-126,-161,-158,-133,-120,-116,0
-3,-5,1,-2,-2,-5,-2,0,6,-7,-2,3,8,-4,-6,2,2
-3,-8,5,4,-5,0,7,-3,0,-2,-4,16,6,-3,5,1,3
-1,-2,-6,0,-9,4,-1,-4,-2,-3,-4,-5,1,-7,-5,-3,2
-30,-17,-13,-27,-59,-67,-42,-37,-24,-4,20,8,-20,-35,-47,-68,0
-30,-24,-20,-22,-34,-45,-56,-76,-94,-97,-94,-90,-77,-59,-39,-8,0
0,-4,-7,1,-3,-8,-3,3,-4,-2,-3,2,-7,0,1,-1,3
20,23,30,-16,18,26,38,-25,25,-16,8,-12,4,3,5,-5,1
-74,-43,-14,-10,-34,-72,-96,-89,-61,-29,-2,3,-4,-20,-19,-18,0
-68,-60,-39,-18,-7,7,5,-9,-33,-55,-67,-78,-64,-64,-62,-69,0
22,36,39,25,5,-21,-32,-32,-27,-15,-1,6,13,15,31,31,0
-91,-127,-171,-189,-172,-132,-100,-81,-64,-50,-20,21,55,67,56,14,0
8,-10,-5,2,13,-15,-7,4,-1,-4,0,6,8,-8,-2,3,2
-5,-2,10,-27,-13,9,-13,-8,-11,7,9,-6,-26,14,6,5,3
9,6,7,11,4,-14,-35,-63,-46,-23,15,33,41,36,22,36,0
-117,-131,-124,-102,-66,-24,5,24,31,21,6,-8,-9,-21,-40,-73,0
-7,-10,-25,8,-24,-9,-11,11,-7,-15,-31,14,-20,-22,-8,11,1
17,-3,-10,-4,12,-8,-8,5,19,-3,-12,-1,10,0,-8,0,1
-2,2,1,-22,-8,-4,-5,-3,3,-4,-5,-4,-6,0,-3,-2,1
-2,-7,-2,-2,-2,-2,-7,-1,2,-3,1,2,1,1,-4,5,2
-16,22,5,-13,-7,11,-2,-4,-2,12,4,-24,-5,9,-4,-9,1
-3,4,1,-3,0,3,-3,-1,-3,-5,1,2,5,-8,-2,0,2
-6,3,9,-20,-9,11,-11,-6,-10,1,4,-2,-22,6,3,6,3
-5,-3,11,4,-7,4,15,-5,4,0,19,-19,2,14,4,-16,1
-9,-10,-9,11,27,-23,0,-21,-13,17,5,-6,-9,14,-5,3,3
-5,0,-3,2,3,-7,-3,1,4,-4,-2,-1,3,-4,-1,-1,2
-4,-3,-9,-1,-10,-1,-6,0,-4,0,-6,-5,4,-6,-7,-6,2
-69,-50,-20,4,44,91,84,49,14,-32,-71,-92,-96,-105,-91,-58,0
-6,1,-1,5,-1,1,-1,0,-11,-12,-7,-3,-24,8,-16,-1,2
-1,5,3,-4,-6,9,5,-4,-6,-1,-1,-4,-2,-3,-11,4,3
-2,10,3,-3,16,6,3,-16,-3,-8,8,8,-2,1,9,-3,3
-5,10,14,9,-26,28,12,14,-2,6,6,10,-12,12,12,6,3
24,2,-1,1,20,8,-5,2,12,15,-14,8,19,-1,-3,6,1
-3,-5,-7,-5,-19,11,-3,-10,-6,-2,4,-8,-6,-1,-8,3,3
19,11,-7,-15,22,10,-21,-3,12,7,7,-15,12,6,-6,-2,1
3,-1,-2,3,-1,1,2,0,9,-5,3,-2,-3,5,3,-1,2
-11,8,7,-4,-7,8,1,-4,-12,0,2,-7,-13,-3,-3,1,2
-6,-4,6,0,3,-7,2,-1,-7,0,4,-1,-6,7,-4,0,2
-97,-92,-69,-41,-15,-12,-11,-13,-25,-38,-60,-86,-108,-90,-52,0,0
-2,-2,7,6,2,-2,7,2,4,-5,-1,4,11,-8,1,-2,2
-1,-10,1,-1,-5,1,-5,-2,4,-3,-7,14,3,-1,6,-1,3
-7,1,-3,4,-3,-5,2,1,7,4,-2,-6,14,-8,-4,0,2
-1,1,1,-8,-5,-4,-1,2,-5,4,1,-18,-7,2,-7,-6,1
-3,-3,-2,1,-7,1,-2,-1,-3,1,-4,0,2,-9,6,-4,3
-6,-4,5,1,4,-8,2,-1,-7,0,3,2,-6,6,-3,1,2
-23,-50,-71,-81,-62,-38,-25,-36,-53,-59,-75,-90,-106,-112,-109,-90,0
5,17,11,11,-24,27,8,32,5,20,0,-9,4,12,1,-2,3
-13,-7,-6,2,-4,-15,-4,-1,-16,10,11,13,-17,10,24,0,3
-1,5,-1,-3,-7,4,2,2,11,-3,1,-4,1,2,-4,5,2
-77,-75,-49,-7,27,47,58,46,29,17,6,-9,-17,-23,-30,-47,0
10,4,2,2,-4,-5,-2,11,30,63,96,110,109,104,85,64,0
0,41,20,7,-12,26,11,42,5,24,2,-10,5,9,1,6,3
-6,-13,-11,15,34,-35,-1,-12,-7,27,7,2,4,14,4,7,3
-7,4,-4,-4,-8,5,-6,-2,13,5,2,-8,4,14,-2,-3,2
-1,-3,-10,7,7,-12,-6,5,-1,0,-6,4,-6,12,-5,-3,2
-16,-17,-17,4,-8,-17,-4,-18,-19,-2,-3,31,-5,-11,19,4,3
-3,-3,-2,2,-6,1,-1,0,-3,2,-3,0,2,-8,6,-5,3
105,114,111,100,83,71,63,41,6,-10,-5,21,49,80,91,85,0
2,-2,-4,-9,9,-5,-9,-7,-7,-8,-8,-12,-1,-17,-18,-1,3
4,18,1,7,11,11,1,7,5,23,8,-6,7,17,8,-2,3
10,-2,-17,-49,-75,-94,-113,-129,-143,-144,-138,-112,-82,-57,-26,5,0
-5,5,3,-5,-7,-1,8,-2,3,18,27,-36,13,18,-2,-17,1
-28,1,22,39,49,45,28,1,-15,-27,-30,-27,-20,-17,-17,0,0
80,6,-2,10,85,11,0,-3,69,19,-1,25,86,9,8,10,1
-15,-26,-7,-11,-16,-17,-7,-19,-9,-31,-12,-1,-4,-24,-10,-14,3
6,9,5,-9,-3,19,2,-6,3,2,-5,-12,-5,-1,-3,-3,3
-62,-71,-73,-59,-48,-36,-32,-18,-16,1,30,62,88,101,118,121,0
-9,-18,-35,-26,6,-26,-21,-2,10,44,47,25,4,0,21,39,0
6,6,3,-13,14,-1,-6,-6,32,6,-5,-10,26,6,-17,8,1
1,2,-2,-2,-3,-8,-4,15,2,0,-4,22,14,20,5,-19,1
-9,-13,-4,-15,-21,4,-10,-14,3,-20,1,2,-2,-8,0,-6,3
-9,-6,-5,4,-2,-14,3,-3,-12,-9,-7,13,-10,-7,-2,3,3
36,14,2,-7,14,27,9,-5,64,-7,3,3,74,-13,-1,4,2
0,-5,6,-3,-3,-3,2,3,-4,-5,5,1,8,-7,-5,1,2
15,-24,-17,3,4,-13,-17,5,34,-28,-48,2,10,-24,-36,10,1
-2,-10,-10,1,-11,3,-2,-12,-6,-1,5,-5,0,-2,-9,3,3
-9,20,49,50,57,39,-10,-49,-87,-114,-135,-152,-152,-127,-90,-84,0
-8,5,7,-5,-1,-2,5,-3,9,2,6,-3,5,6,0,3,1
14,11,-14,-17,15,-8,-13,2,3,8,-14,-3,0,-10,-7,11,1
-7,7,1,2,13,6,0,-16,-2,9,6,13,18,-6,19,-6,3
0,-4,0,20,15,-18,6,12,-1,2,6,4,-6,9,3,5,3
-2,-9,-1,6,-7,-1,-2,4,-3,-10,2,9,0,-1,5,-5,3
-47,-57,-63,-63,-64,-67,-67,-71,-73,-75,-65,-68,-70,-66,-62,-59,0
81,27,5,2,80,28,3,4,62,25,-7,10,82,-2,3,6,1
-72,-79,-75,-57,-30,-2,26,36,32,18,8,-18,-39,-44,-30,-7,0
3,-8,-12,-18,7,-13,-8,-21,1,-14,-4,-6,-16,-11,-2,5,3
-28,-38,-61,-77,-78,-69,-46,-22,-13,-24,-43,-49,-49,-34,-15,-8,0
5,3,-4,-5,9,-1,-13,5,-5,-2,4,-12,-12,0,-6,3,1
4,-2,4,0,8,1,0,-4,1,2,6,3,4,-1,8,2,3
3,-12,-22,-37,-63,-86,-82,-51,-30,-13,-20,-29,-38,-29,-15,-23,0
3,8,6,16,6,7,13,6,3,2,7,10,12,5,5,-1,3
10,0,7,3,12,2,7,0,8,4,0,5,16,-5,3,4,2
7,-14,-5,-14,-8,5,-1,-22,-4,-11,2,-3,-10,-5,5,-6,3
3,-2,-1,-5,-18,0,-1,14,4,-16,-4,-11,-8,-14,-8,4,3
-59,-53,-34,-31,-39,-57,-64,-73,-75,-71,-44,-37,-6,4,-9,-18,0
76,59,48,36,20,19,16,35,62,94,111,116,99,78,59,54,0
-5,-16,-6,3,9,-12,0,-21,-9,-17,-12,14,1,-15,1,-11,3
26,12,-3,27,38,3,6,16,10,11,8,7,21,5,5,5,1
-9,2,-1,-7,-9,-3,-3,-2,-13,-3,1,1,-20,2,2,2,2
29,43,50,43,12,-14,-26,-10,26,66,91,90,81,63,50,50,0
-8,1,-3,-7,1,-7,-3,-7,-9,9,-1,-7,-5,0,-3,0,2
7,4,-2,-1,11,-8,5,0,5,-7,-1,4,-4,1,1,4,2
31,-4,-21,-10,-3,-5,-10,-23,-38,-47,-46,-37,-16,25,54,63,0
-15,5,-1,11,-6,2,-4,7,-17,2,-23,8,-3,-10,-19,2,1
252,203,112,35,-34,-83,-100,-109,-108,-100,-58,-7,48,92,123,137,0
1,-7,-4,-12,-6,4,-10,-9,-15,2,2,-9,-15,4,-8,-2,2
-18,-22,-19,2,-13,-20,-4,-21,-17,-11,-7,29,-7,-19,15,4,3
5,-15,-11,3,9,5,12,-2,-27,-46,-52,-45,-26,-1,-5,-14,0
4,-1,-1,13,0,1,2,12,0,7,2,4,3,1,4,6,3
-3,13,7,-23,-7,22,-3,-17,-6,-5,-5,-17,-19,-7,-8,2,3
1,4,4,-4,9,-1,2,-6,-1,11,1,-8,6,5,-2,-5,3
-5,-5,-4,-14,-1,-7,-3,-17,2,-1,4,-30,-2,-4,-16,-4,3
-31,-37,-28,-18,-13,-6,-15,-22,-12,6,14,12,7,-10,-32,-47,0
-5,7,4,-8,1,4,-5,-3,-1,3,2,4,7,0,1,0,1
0,20,28,-45,3,6,3,-9,-16,19,54,-40,-3,27,8,-16,1
42,116,127,83,32,-15,-67,-91,-90,-86,-75,-90,-64,12,51,51,0
-10,-1,-6,9,1,-5,-3,-1,0,-5,-7,3,2,-6,5,-9,1
45,7,-3,17,51,2,4,10,40,10,8,20,57,8,6,6,1
43,5,-12,-20,-29,-61,-109,-154,-168,-132,-75,-16,18,35,28,13,0
-142,-170,-183,-159,-123,-109,-102,-78,-54,-26,-12,-26,-70,-106,-109,-109,0
5,12,1,-2,6,6,0,3,6,8,11,-9,9,7,0,-1,3
59,47,30,-53,26,32,37,-11,23,38,44,-58,12,34,22,-22,1
3,-8,5,-2,6,-2,0,-5,7,-4,4,-1,2,3,-3,5,2
4,1,15,6,10,-1,18,-1,1,15,41,-1,-5,36,45,-20,1
-25,-1,10,-3,-7,-10,9,-12,11,27,6,1,-8,48,10,-4,1
1,0,-2,-6,5,-3,-9,-1,-2,-11,-8,-3,15,-23,-12,-4,3
3,-2,1,-7,-2,-2,-9,7,-2,6,2,-7,5,3,-10,2,3
3,5,-2,-26,6,2,-23,-6,-4,-14,11,-21,-7,-8,-11,-1,1
1,9,7,-9,4,7,-1,-2,-2,9,12,-13,-7,13,-1,0,3
5,-12,-5,-12,9,-9,-11,-12,-4,0,-4,-8,-8,-1,-8,1,3
1,1,-9,-1,22,-12,-5,-14,7,-16,-13,5,10,-20,-8,1,3
-1,7,-1,1,6,-3,0,3,1,5,-4,-13,2,-2,-12,1,3
1,0,-4,-5,0,1,0,-9,-4,2,-5,3,0,-10,5,1,3
-7,2,12,-2,-3,5,4,1,-4,5,2,0,1,-3,2,3,3
2,-8,4,9,1,-3,2,7,-2,2,9,16,1,2,17,5,3
9,-3,1,3,7,-3,7,-1,10,-8,-4,8,4,0,2,1,2
-5,4,1,1,-4,2,5,-3,8,-9,-3,-2,5,-8,-2,-1,2
-3,-12,-2,-4,-9,-2,-8,-2,-1,-2,-1,-4,-3,3,-5,-2,3
6,4,13,-14,2,8,-1,2,5,8,0,-9,2,1,-1,2,3
4,-14,-5,-6,-8,-8,-9,4,-13,15,2,-19,-6,-1,-3,-5,1
30,6,-5,0,29,3,0,-3,8,4,12,14,31,13,-5,-1,1
-8,-12,-6,-3,-11,-9,-9,0,-7,3,-11,-1,-4,-5,0,-8,2
-8,-2,1,-8,-10,-5,-1,0,6,-10,-2,-8,-10,-3,-1,-1,2
1,-3,-2,-6,16,-18,-5,-4,5,-1,-2,-1,22,-9,-7,-5,3
-77,-92,-99,-102,-90,-81,-71,-65,-51,-30,-11,13,20,11,-6,-30,0
19,-2,4,5,25,-4,2,3,15,16,3,9,29,3,6,5,3
-3,-13,-18,7,-12,0,-13,-1,10,-19,-19,-1,-5,-1,-23,1,1
6,-8,-9,33,8,-9,9,13,9,-22,-9,29,21,-17,5,-3,3
-3,-18,-6,2,-1,-13,4,-16,-2,-4,-5,-11,-6,-8,-9,2,3
-89,-110,-126,-144,-140,-97,-68,-64,-71,-87,-106,-111,-113,-147,-142,-108,0
-15,5,0,-11,19,50,33,25,23,-12,-50,-62,-78,-111,-110,-74,0
32,13,-16,-51,-96,-128,-143,-156,-153,-144,-118,-76,-31,16,32,37,0
-3,-6,-3,-8,-6,2,-9,-7,-18,4,1,-6,-14,2,-6,-2,2
-5,17,12,-26,2,-5,-2,3,-5,8,12,2,-10,22,18,-12,1
6,-13,-5,-11,10,-10,-11,-12,-4,-1,-5,-7,-8,-2,-10,3,3
2,19,11,-20,-3,13,9,-8,0,13,19,-23,6,17,0,-13,1
-11,-2,3,-11,-8,-6,-6,-1,-7,13,6,-12,-3,6,-4,0,1
16,13,-1,-8,20,4,6,-11,34,20,5,-9,24,22,4,-1,1
7,-16,-7,2,16,55,46,21,4,-4,-22,-28,-2,-6,-13,-2,0
10,14,11,5,5,25,11,0,5,6,8,6,5,7,7,7,3
36,36,34,41,37,35,34,35,47,54,64,62,49,68,104,131,0
-102,-93,-69,-77,-57,-25,-1,3,5,-4,-58,-76,-67,-57,-25,65,0
-3,-5,0,-6,1,-8,0,-6,-2,-7,-1,5,1,-9,1,3,3
0,3,-1,-3,-2,2,-3,2,2,-8,-4,3,3,-5,-3,-3,2
-5,11,7,-17,-25,16,7,-2,-12,10,10,-18,-17,10,1,-4,3
48,4,-12,-16,40,-6,-18,8,23,10,-7,-1,23,2,-11,11,1
6,6,-2,-30,7,3,-23,-6,-2,-13,13,-26,-9,-6,-11,-1,1
92,126,108,55,14,-9,-1,14,22,-14,-57,-87,-81,-46,-11,-6,0
-3,2,2,0,16,-12,-3,-1,-2,4,4,0,16,-6,-2,-2,3
-11,-19,-19,3,-9,-19,-26,7,-11,-13,-22,16,-3,-9,-19,0,1
1,4,-3,-5,9,-2,-4,-4,-6,-1,-9,19,11,1,-11,2,1
-14,3,-3,-8,-9,-6,0,-7,-12,-6,-1,-2,-21,0,-1,1,2
13,3,-5,15,7,-7,25,0,13,-1,10,9,12,9,31,-21,1
-3,-1,-5,2,1,0,-1,-7,2,-13,-2,2,0,-11,-6,7,3
6,-2,6,-2,-3,8,1,3,2,0,1,1,-3,2,0,5,2
-22,5,12,-5,-18,-3,9,3,-16,6,30,-42,-18,4,2,-11,1
-1,10,15,6,-23,30,8,15,-3,5,2,9,-9,9,9,4,3
10,11,9,2,5,19,7,2,8,6,6,4,5,5,8,6,3
-142,-127,-109,-92,-87,-79,-67,-36,10,70,116,123,95,40,-12,-65,0
-3,-10,-2,6,-1,-10,-2,2,6,5,-2,-5,21,-4,-8,-5,2
-58,-74,-67,-44,-5,27,36,39,40,48,60,70,57,33,10,-6,0
1,-1,2,6,-7,9,6,-1,2,1,2,2,4,3,-4,3,3
-2,0,-9,4,0,-2,-4,-2,-4,-1,-5,-6,-8,-2,-4,-2,3
-2,20,31,-21,-2,-5,37,-1,14,16,19,-21,13,3,27,-14,1
-13,7,-2,16,-7,1,5,8,-14,25,8,14,-4,14,16,8,3
0,7,6,-7,-4,8,-3,4,2,4,9,-12,-9,12,0,1,3
-2,8,-7,-1,6,3,-15,5,2,-2,-10,0,6,4,-19,-1,1
-49,-75,-96,-128,-155,-155,-96,-66,-55,-58,-67,-68,-51,-30,-22,-8,0
47,9,-10,-16,40,-1,-17,7,24,9,-6,-1,21,6,-10,9,1
-50,-45,-42,-49,-73,-87,-74,-46,-6,28,46,47,57,62,51,29,0
0,-4,-12,-28,-17,-2,-14,-11,-2,-2,-5,-26,-21,9,-9,-14,1
37,14,-6,-2,40,6,-5,3,23,5,-4,4,17,11,-5,5,1
-2,10,3,-16,-8,4,-2,0,4,4,10,-18,13,1,-2,-12,1
4,1,-3,-3,14,-7,2,-9,5,-2,-3,1,14,-5,-4,-5,3
1,3,3,-4,-2,4,0,1,-8,3,4,-3,-3,4,-3,-1,2
128,162,148,70,-35,-129,-202,-214,-204,-160,-101,-41,11,50,78,89,0
-1,-11,-21,15,-9,-18,-8,17,15,-4,-19,16,10,-7,12,-7,1
1,3,-1,2,3,4,-1,0,0,2,1,-8,5,-2,-11,3,3
1,-13,-7,-5,7,-19,-14,3,0,-3,1,1,3,-6,0,2,2
-1,0,-5,2,-8,4,2,-2,-2,-1,-1,-8,2,-6,-7,-2,2
2,18,16,13,29,1,14,5,21,13,3,9,41,-1,7,-2,3
-4,-1,-1,-3,-3,1,1,-9,-3,-2,3,6,0,-4,10,-1,3
9,-6,1,5,7,-7,1,8,10,-3,-2,-3,0,-4,4,1,2
48,90,113,109,77,32,-4,-28,-18,-13,-14,-17,-3,9,25,49,0
1,5,-2,-7,1,-1,-1,-3,0,-8,-4,3,-3,-1,3,-8,2
2,-6,-5,10,2,-1,-14,14,15,1,20,-17,5,18,9,-14,1
2,-2,-4,-10,9,-5,-8,-9,-6,-9,-8,-15,-4,-16,-19,0,3
13,11,-10,-2,21,10,-11,-9,7,-9,-17,12,20,-16,-17,6,1
3,29,41,52,36,18,1,-15,-29,-43,-45,-51,-56,-54,-56,-49,0
6,-7,-7,13,4,-6,5,3,3,-8,-1,5,15,-12,-5,2,2
1,-13,-5,-6,1,-7,-5,-11,2,-10,-7,-13,-6,-10,-9,-3,2
3,4,-5,6,0,-4,5,7,8,3,-3,4,13,-4,3,1,3
-9,-8,1,-7,-13,1,-11,-1,3,-7,-6,-9,-11,4,-10,-2,2
28,33,49,55,43,10,-16,-29,-25,-4,3,-9,-50,-75,-73,-48,0
50,24,16,-35,26,15,16,-2,37,22,36,-56,17,29,14,-20,1
3,-3,2,-6,-2,-3,-8,8,-1,5,2,-6,5,3,-9,1,3
5,-2,-2,4,3,1,2,-1,-14,9,2,8,-7,7,2,4,2
-10,0,-17,11,-4,-11,1,-1,-2,-4,-4,2,-1,-10,-8,11,1
-4,-7,-11,0,-34,1,-1,12,-7,-16,-9,-5,-33,-6,-1,2,3
15,-9,0,-4,16,-12,-2,-1,30,-3,-2,2,31,1,-5,0,2
9,14,-6,7,42,-1,4,-21,14,-7,-12,15,34,-18,-2,-4,3
4,-2,7,-1,-3,1,-2,11,4,-1,5,2,4,-1,4,2,3
7,-5,-4,3,1,3,-1,-2,8,1,5,-3,-9,18,-8,11,2
11,3,7,-11,8,17,-7,-7,-1,8,12,1,5,16,10,-11,1
-3,10,2,7,17,8,6,-15,-6,-4,9,17,-4,7,17,-4,3
-1,-2,1,4,-5,4,3,1,2,6,1,5,-4,13,-2,6,2
-15,-2,-8,11,1,-19,-4,9,7,0,-1,3,14,9,8,-22,1
1,5,6,-1,-1,-1,21,-8,-4,-6,-10,14,-1,1,-7,3,1
-7,-2,-2,-3,-7,-3,-4,0,2,-6,-3,-1,-1,-1,-4,-1,2
1,7,-1,1,6,-2,1,3,2,4,-5,-13,2,-3,-11,1,3
15,-2,-12,-6,16,-7,-7,-8,-1,-3,-2,9,20,-3,-14,1,1
-26,-3,11,13,22,50,78,77,32,-44,-121,-151,-119,-55,-1,26,0
8,-2,-2,-1,10,-3,-4,0,20,-10,-5,-1,13,-2,-4,-4,2
-24,-1,-2,-12,-25,-1,-2,-11,-30,-4,-1,-8,-39,2,-5,-1,2
-3,1,1,-13,-8,1,-3,-4,-3,-1,-3,-12,-14,2,-5,-2,2
10,-5,0,-14,2,7,-15,-3,-3,11,4,-19,5,7,-10,-10,1
17,16,10,-23,4,7,15,-6,40,-13,-11,3,-2,11,11,0,1
0,-6,2,13,8,-7,6,3,-8,-10,18,27,17,-2,26,-14,1
-1,-7,9,-27,-16,10,-14,-7,-8,7,18,-8,-27,18,12,7,3
-10,1,0,-14,-18,3,-4,-4,9,6,-5,-14,9,-2,-6,-6,2
-4,6,2,7,4,-1,5,2,4,3,-8,7,3,-4,-7,13,1
-43,-22,28,80,96,68,11,-51,-78,-53,4,62,91,77,41,22,0
2,0,3,-8,-3,-3,0,2,-5,6,1,-16,-5,7,-11,-5,1
-4,-8,-13,2,-33,-1,-1,12,-7,-18,-9,-2,-31,-8,0,3,3
68,22,-30,-67,-81,-83,-79,-72,-61,-28,26,68,118,171,208,211,0
-7,-5,5,-2,-6,-2,-1,0,-3,6,-3,-3,-5,1,2,1,2
2,3,20,-16,1,5,9,-6,8,22,27,-51,5,15,-1,-12,1
11,18,0,13,25,-8,10,15,11,7,-6,2,12,-5,2,5,3
-3,-3,3,2,-3,1,3,-2,5,-13,-5,1,-6,-9,0,2,2
7,10,-12,-2,28,-6,-9,-10,7,2,3,-6,20,0,-8,-7,3
27,2,-12,-2,28,62,76,72,51,25,14,14,2,-24,-45,-54,0
-17,-25,-20,-20,-12,-17,-12,-14,-18,-21,-13,-20,-24,-21,-17,-14,0
3,-5,-2,-7,7,-9,-6,-3,2,-3,6,-4,13,-8,-9,4,2
-2,4,0,-8,2,0,-5,-3,-8,-12,-1,-1,-12,-8,2,-3,2
65,2,-75,-116,-128,-136,-115,-83,-62,-49,-27,4,31,51,59,40,0
-12,6,-1,2,-9,0,-1,5,-19,5,2,4,-21,6,2,5,2
-73,-41,-13,8,27,43,47,30,11,-24,-66,-87,-94,-92,-86,-79,0
-15,9,27,26,13,-12,-52,-85,-109,-117,-115,-101,-78,-66,-53,-42,0
-2,-1,0,-7,-5,4,-5,-4,0,-5,-4,4,3,-8,-1,0,2
4,-11,8,-23,-13,12,-12,-8,-5,5,16,-9,-25,14,13,4,3
10,-9,-4,5,14,-7,-4,0,-10,-1,-15,16,-1,-5,-4,1,1
1,2,-10,-9,-15,5,-27,22,-4,-5,-10,4,-6,-1,-9,1,1
40,25,-10,-13,30,52,67,78,59,11,-3,-2,-28,-35,8,62,0
2,8,2,-2,-10,16,2,4,13,-6,-4,-9,9,4,-11,-7,3
4,-2,1,-9,8,-10,-7,3,19,-16,0,-7,-2,4,-2,-3,2
-1,-1,3,-1,-8,3,1,4,-2,-4,-9,1,-7,-1,-6,1,3
6,-1,7,2,5,2,8,0,3,13,7,-8,6,6,2,1,3
-5,0,5,1,-12,6,6,1,-11,-2,1,-2,-12,1,1,-4,2
-39,-40,-50,-65,-69,-68,-75,-86,-95,-95,-96,-92,-81,-73,-47,-32,0
27,32,49,75,86,78,44,5,-13,-4,17,33,56,68,72,66,0
23,7,-11,-42,-62,-82,-87,-72,-47,-23,-17,-5,0,1,0,6,0
22,-6,-6,-7,13,-7,-7,6,20,-1,-12,-2,9,7,-9,-1,1
9,16,-4,5,31,1,1,-7,10,14,6,14,31,-3,22,-5,3
4,-3,3,-2,8,-1,0,-5,-1,1,6,2,2,-2,8,1,3
-8,-11,-17,-1,-10,-10,-21,3,-12,-21,-19,4,-11,-20,-14,-4,1
17,-5,-32,-40,-30,-5,34,67,90,94,88,63,35,14,-9,-24,0
9,12,-4,-14,-4,11,6,-9,2,-6,3,-1,-8,2,4,-1,1
-4,2,-13,-27,1,-19,-36,12,-8,-9,-6,-6,-11,-12,-6,0,1
-5,-6,0,-1,-12,0,2,-2,5,0,-3,4,-8,12,5,-4,2
-1,9,15,6,-22,28,8,15,-3,4,1,8,-8,7,9,3,3
-39,-18,-19,0,-28,-13,25,11,12,-6,-38,-51,-48,-77,-62,-53,0
-121,-114,-99,-96,-106,-96,-95,-98,-58,-5,12,28,41,11,-36,-59,0
-5,7,-5,-5,-7,3,-6,4,-11,6,5,3,-6,3,4,1,2
-7,-8,-6,8,-4,-9,-3,3,-1,-11,-3,8,2,-6,3,-6,3
-12,-15,6,-1,-39,-6,2,20,-5,-19,-5,-16,-40,7,-11,-1,3
-74,-79,-81,-89,-96,-101,-98,-79,-44,4,55,105,124,98,45,-11,0
-142,-144,-121,-91,-77,-45,-8,6,12,4,-31,-89,-168,-223,-227,-196,0
2,10,20,-5,0,18,19,-10,8,-3,7,8,5,6,5,5,1
1,3,6,5,-7,2,1,19,7,3,5,4,4,-1,13,3,3
1,3,-3,7,-3,5,5,1,3,-4,-9,4,8,-4,-9,-2,1
9,6,4,4,19,2,1,2,12,7,5,7,24,-3,7,3,2
-2,-1,1,2,2,1,5,-8,-4,-1,4,9,1,-5,10,3,3
10,2,-8,-23,-21,18,73,93,90,66,31,16,31,24,-1,-3,0
17,-2,-11,23,23,-14,12,6,11,11,-6,4,17,2,-2,2,3
25,-27,6,-15,-6,1,3,-9,16,-3,-13,-15,14,6,-29,-7,1
-7,3,-1,-8,-13,7,-4,-4,-4,4,3,4,-17,11,7,6,2
3,1,2,3,-14,6,4,13,3,-6,1,3,5,-5,-3,4,3
-38,-28,-29,-40,-50,-56,-64,-68,-80,-91,-98,-84,-66,-51,-37,-25,0
-58,-106,-123,-103,-55,0,33,39,34,25,14,14,26,51,77,98,0
-3,-5,0,-13,-17,5,-7,-2,2,3,-1,-6,6,-3,-3,-2,2
12,4,-2,14,14,6,8,1,6,14,1,4,13,9,4,-1,1
-4,9,10,7,-4,16,18,-9,-3,17,6,-24,-10,22,-4,-12,1
-1,5,7,7,-4,15,16,-8,-3,17,4,-25,-8,19,-5,-12,1
0,-5,-7,2,10,-1,-1,-17,3,-10,0,-3,10,-5,-8,-6,3
-6,-14,-20,-18,-4,22,45,64,66,44,23,11,25,37,44,33,0
-4,4,-6,7,-13,4,3,7,5,7,0,2,3,14,-4,1,2
2,-5,-10,12,31,28,33,45,35,18,11,-8,-45,-61,-46,-54,0
-22,-11,1,19,22,19,19,11,-10,-32,-35,-30,-22,-19,-20,-5,0
12,10,-1,-5,16,4,7,-10,33,18,6,-11,23,22,1,0,1
-66,-38,-12,11,43,52,14,-30,-34,-47,-59,-66,-77,-66,-31,-13,0
6,0,-3,-2,-4,9,-1,-3,1,-4,0,0,-5,6,-5,0,2
116,113,96,60,12,-40,-75,-106,-111,-94,-71,-45,-19,5,9,15,0
7,16,27,20,17,7,0,-13,-21,-21,-28,-23,-17,-19,-18,-6,0
-16,13,4,3,2,-1,6,-4,-4,4,4,-2,1,-1,0,2,1
22,1,1,7,26,-5,2,6,39,-7,-1,9,36,1,-1,5,2
2,-2,4,4,1,-3,10,-1,-3,7,-16,6,5,4,-9,-5,1
51,19,3,-2,32,31,12,-4,90,2,3,3,103,-7,-2,3,2
-5,4,-6,-4,-8,3,-6,0,-3,-5,-2,4,-8,1,0,1,2
23,13,6,19,72,-6,-2,-4,22,6,10,24,41,2,13,6,3
1,10,1,-1,2,6,6,-2,-8,1,1,0,-5,-1,-4,4,2
13,21,21,-16,12,22,28,-23,22,-22,-4,-5,-2,-7,-1,0,1
9,0,-6,-18,23,-11,-10,-16,2,-10,-10,-9,-3,-13,-12,0,3
-160,-158,-142,-111,-79,-31,35,85,110,108,81,37,-17,-76,-126,-147,0
10,2,-5,-14,25,-9,-8,-14,4,-9,-8,-4,1,-12,-8,1,3
-5,-1,5,12,1,-3,7,7,-11,13,8,6,0,-1,12,3,2
-65,-53,-52,-43,-14,32,78,104,114,101,71,37,0,-22,-31,-22,0
-13,4,1,0,-9,-3,-1,4,-21,5,1,-8,-22,-2,5,-4,2
-4,-6,-9,-2,-36,4,-1,12,-8,-13,-9,-9,-34,-4,-2,1,3
-163,-138,-106,-77,-58,-37,-12,8,27,55,56,39,0,-33,-68,-94,0
1,7,1,7,2,3,6,5,-5,5,4,4,-6,12,3,-1,2
6,-2,0,-11,-5,2,-1,-4,7,-6,-3,-7,-9,8,-6,-2,3
-17,-3,-6,-18,-40,-52,-45,-8,29,44,40,26,1,-26,-55,-73,0
11,-7,-18,5,11,-8,-14,4,9,0,9,-8,4,14,2,-8,1
6,-3,-6,1,5,0,-6,-1,-13,11,0,-2,-2,3,-1,-3,2
-18,4,-2,-20,-12,-17,-5,-2,5,7,7,-19,1,6,-3,-4,1
-3,-7,0,-1,-3,-6,-7,5,3,-1,3,2,2,7,-4,2,2
-7,9,6,12,-6,6,6,14,-1,8,0,1,1,9,-3,2,3
-3,3,-5,-4,-6,3,1,-6,0,-6,-4,-3,-4,-4,-6,2,3
-3,-7,8,-27,-17,10,-14,-7,-9,7,17,-8,-28,19,11,7,3
7,21,11,-11,5,17,9,-2,2,23,21,-22,4,24,8,-12,1
3,-2,-8,-3,14,-1,-4,-17,2,-10,0,-4,8,-6,-5,-7,3
38,10,0,8,40,2,7,7,29,15,-4,-5,44,0,-6,-4,3
-23,-9,-2,10,-25,3,7,-10,-12,2,-6,-16,-24,14,-14,-9,3
-32,-36,-18,2,-10,-47,-80,-102,-123,-134,-127,-118,-108,-73,-52,-70,0
0,-5,-7,-7,-7,-5,-2,-5,-11,2,-5,-6,-10,-2,-2,-6,2
-2,0,-2,-2,-6,-2,-2,4,1,3,2,-6,-2,-4,4,0,3
-5,4,0,5,-2,2,4,0,-1,5,3,2,9,-3,4,-1,2
-13,3,0,3,-10,0,3,1,-1,-10,2,4,-15,9,2,-1,2
113,114,106,99,89,75,68,60,61,56,62,75,86,89,81,83,0
51,16,-5,13,57,9,2,7,47,18,2,26,58,12,8,14,1
7,20,11,3,7,23,3,7,5,8,6,-7,5,11,-3,0,3
-82,-84,-63,-54,-60,-50,-38,-43,-37,-18,-37,-76,-82,-56,-34,-27,0
-8,3,-2,2,-11,7,-6,5,-11,-4,0,-5,-6,-8,-3,-3,2
21,9,19,-24,16,1,13,-5,20,13,46,-35,-1,31,34,-19,1
59,67,58,13,-28,-30,-16,-8,12,3,-31,-50,-46,-52,-52,-32,0
20,25,26,17,-2,-23,-35,-36,-25,-1,25,45,44,34,10,-14,0
13,14,3,12,19,36,41,42,49,58,65,71,55,40,35,32,0
-10,8,0,-8,-6,-8,2,2,9,-1,1,-2,2,0,0,5,1
-3,-11,-2,-1,-6,-4,-4,-3,-17,6,-1,3,2,-3,-4,-4,2
-9,5,7,-3,1,-2,4,-3,9,3,7,1,7,7,4,3,1
1,7,-1,-8,0,5,-1,-4,0,6,5,-12,2,5,-6,-2,3
-1,-1,-12,-9,-2,-2,-14,-5,1,-10,-2,-15,6,-16,-12,-5,2
5,8,10,9,27,2,1,3,-6,-4,-1,23,19,-3,-12,8,1
2,3,-4,-6,-9,9,0,-4,2,7,-11,-2,3,4,-9,-2,1
5,8,-1,-12,10,-2,-4,-5,-4,25,10,-17,-8,15,5,3,3
-22,10,15,-40,-33,13,-3,-14,-24,5,2,-35,-37,1,-10,-5,1
-82,-112,-121,-120,-95,-59,-19,10,34,51,37,18,9,9,13,11,0
1,-2,-2,-10,-6,3,-4,-6,-5,-2,-3,-1,-4,-8,2,0,3
-45,-59,-69,-35,20,57,37,-5,-14,4,-20,6,-13,-58,-82,-54,0
-2,-93,-168,-211,-227,-208,-160,-87,-18,37,101,147,151,116,39,-38,0
-4,-5,-2,-1,1,-8,-5,1,5,-5,-2,-1,10,-6,-7,0,2
-48,-6,27,41,37,25,10,9,3,-25,-63,-89,-83,-54,-21,-2,0
-1,11,7,1,-4,9,10,3,7,8,14,-9,2,14,8,-4,1
-11,6,-2,4,-7,-3,6,1,-5,-1,0,1,-4,-7,3,3,2
10,-5,0,-1,6,-4,6,-4,11,-8,-6,3,4,-2,1,-2,2
-1,-1,-1,-5,-7,2,0,-3,5,-1,-7,1,-2,6,-6,1,2
-3,17,2,-1,2,8,5,-1,-1,4,4,-3,-7,6,4,2,2
-7,-3,-14,-3,-13,-4,-13,5,-11,-11,-24,-4,-15,-16,-23,3,1
18,9,8,6,-8,15,6,28,3,25,1,-11,9,10,6,-7,3
7,-2,5,2,6,2,10,-5,4,0,1,-1,4,3,-1,-2,3
-3,1,-4,-10,-16,2,-5,2,-11,4,-5,-12,-23,7,-6,-2,2
6,12,-12,-5,24,-7,-10,-6,2,1,1,3,11,-2,0,-2,3
6,7,4,-4,13,-2,2,0,39,6,6,-7,25,21,5,-7,1
-9,10,49,77,94,74,19,-30,-72,-69,-50,-2,51,75,89,80,0
6,31,-3,-32,5,5,-1,-6,-1,-4,16,-10,-3,5,1,-3,1
-5,3,-1,-1,-4,0,3,-2,4,-8,-4,-6,1,-9,-2,-5,2
71,76,70,63,39,30,31,30,40,55,74,88,93,94,78,68,0
-16,-1,-3,-10,-14,-12,-4,1,-32,5,2,-10,-39,5,0,-1,2
5,-4,-11,-19,2,-6,-7,-18,2,-9,-4,-11,-15,-11,-3,7,3
11,-15,-5,6,6,-9,-1,1,3,12,-2,-2,4,9,0,-2,2
24,17,18,39,66,78,66,44,33,35,33,39,49,63,81,91,0
9,18,-5,-24,23,2,-9,-17,14,7,0,-15,18,-3,-6,-3,3
1,5,-5,-2,3,-5,-1,1,8,-6,-3,2,-7,6,0,2,2
6,5,-4,6,13,3,-1,-1,0,4,-11,10,11,-2,-6,-1,1
3,-8,-7,3,20,-10,-2,-17,7,8,6,11,15,8,8,2,3
14,-5,-17,-30,-40,-72,-100,-125,-138,-140,-109,-70,-47,-36,-44,-56,0
11,15,2,4,9,10,2,12,5,14,-8,-11,0,-2,-12,14,1
2,-17,-25,17,-2,-8,-34,20,7,-2,-20,9,24,-4,-20,-7,1
40,-4,-8,30,41,18,11,-11,17,-11,-8,48,24,-7,21,7,1
-26,4,-3,-4,-30,-2,2,2,-32,-5,-2,-6,-34,-9,0,-1,2
-5,15,-18,20,-1,8,5,-1,12,-18,-35,23,-9,-11,-10,12,1
-1,-5,2,-2,-3,-3,-6,7,-3,-5,-1,-2,-3,0,-10,2,3
-7,0,-2,1,1,-5,-5,0,10,-9,-4,-2,5,-6,-2,-2,2
4,-6,2,-1,9,-2,-4,-5,-1,-2,5,-6,0,1,-1,-4,2
29,-1,-3,4,35,-9,-3,6,48,0,-1,11,46,8,-1,5,2
-34,-69,-101,-85,-66,-24,7,37,61,92,89,46,-5,-60,-107,-146,0
-99,-77,-50,-28,6,35,49,52,34,5,-18,-18,-35,-79,-135,-162,0
20,0,0,3,23,0,0,1,22,-1,0,7,20,5,-1,4,2
49,58,68,75,81,73,72,65,48,22,-5,-45,-82,-98,-99,-77,0
-166,-169,-161,-134,-96,-42,-15,-5,2,-29,-82,-115,-104,-87,-70,-34,0
-3,-2,2,4,3,1,-6,4,-13,5,3,5,-9,5,4,1,2
-6,5,3,-2,-7,-9,7,7,4,24,27,-35,13,23,3,-20,1
19,13,1,-14,25,2,4,-10,37,19,0,-6,29,20,4,-2,1
5,15,-3,18,8,25,14,-12,2,24,-5,2,12,14,1,-4,1
-14,-5,-7,-13,-6,-12,-19,-2,16,-8,-3,-21,12,-11,-17,0,1
-8,13,1,2,6,3,-3,3,-10,-3,2,6,-5,-3,5,-2,2
4,14,12,24,19,8,6,-5,-17,-41,-55,-70,-79,-69,-46,-22,0
2,-1,-5,3,-2,-7,-10,19,5,2,-2,21,20,20,6,-20,1
33,13,-7,-6,32,3,-10,8,5,14,-6,2,13,1,-10,10,1
-9,19,3,9,-6,10,5,13,-15,27,8,11,-12,12,18,13,3
-104,-125,-133,-133,-147,-117,-64,-47,-52,-67,-93,-128,-124,-101,-81,-67,0
-2,7,11,4,-8,17,8,4,-1,-6,-5,17,7,-4,2,0,2
8,3,7,8,20,3,6,-4,3,9,4,1,-2,12,5,3,3
1,0,5,-14,-9,7,-4,-3,-3,8,19,-21,-12,14,7,-5,1
-8,10,-4,3,-3,1,-1,3,-10,6,0,2,-1,1,0,-2,2
-6,12,11,5,-3,16,18,-9,-4,16,7,-22,-11,22,-3,-12,1
-13,-19,-1,-21,-40,5,-18,-1,-7,-6,-1,-36,-40,15,-18,-7,3
0,-4,-3,5,-2,2,2,-5,1,-3,-4,-1,4,-2,-12,2,3
62,29,21,55,62,32,64,48,-21,-22,-1,2,26,76,78,60,0
-3,-3,0,-5,-7,-1,2,-3,-5,4,2,-5,-5,-2,1,1,3
62,85,92,56,-4,-37,-31,-27,-18,8,37,40,36,7,-37,-61,0
-65,-60,-38,-9,28,51,56,58,63,73,76,79,64,30,-14,-59,0
42,14,-28,-70,-107,-125,-127,-123,-112,-99,-72,-45,-2,51,96,126,0
6,-4,2,-4,7,-5,-1,-1,6,-13,2,-4,-2,-5,-1,0,2
-59,-64,-71,-61,-72,-99,-100,-73,-56,-25,27,58,54,47,47,13,0
-16,-12,-6,29,79,123,115,73,12,-42,-76,-97,-106,-110,-107,-79,0
-2,-5,12,17,22,25,26,-3,-35,-38,-37,-47,-54,-64,-76,-68,0
-3,1,-2,-7,-10,0,-6,4,-3,2,-1,-8,-12,4,-3,1,3
-42,-31,9,35,21,18,23,26,14,-1,-10,-26,-20,-19,-19,-1,0
5,-50,-85,-92,-82,-52,-41,-33,-32,-16,13,19,20,4,-12,-20,0
12,-5,6,-2,11,4,3,-5,15,0,-2,7,11,7,2,1,2
-23,-25,-47,-69,-71,-49,-4,43,84,92,67,23,-7,-34,-51,-54,0
-2,-5,-2,-2,-11,2,-3,2,-19,1,1,-4,-16,-5,0,-1,2
-55,-61,-67,-45,5,59,80,50,2,-67,-130,-167,-166,-134,-83,-38,0
0,12,10,-14,7,1,-1,1,-4,5,18,-9,-1,4,6,0,1
2,3,1,2,7,-2,6,-4,1,-5,-1,4,3,-3,-1,0,3
6,3,-5,-8,15,0,-10,-10,1,-13,-1,-1,5,-13,-7,1,3
14,7,3,0,28,-4,2,-2,22,5,1,4,20,15,1,-4,2
4,-2,-2,4,1,2,3,-1,-11,8,1,6,-5,6,2,2,2
-33,-13,17,50,61,44,14,-30,-74,-102,-105,-82,-51,-11,1,-5,0
-3,-7,-7,5,6,-2,0,-17,3,-10,2,-1,10,-4,-9,-3,3
2,-9,-2,6,-6,4,0,-2,-9,-6,0,6,-15,11,-6,1,2
0,1,-1,12,-2,5,6,4,3,-16,-10,5,1,-13,-3,-3,3
-68,-52,-15,9,7,0,19,20,49,69,63,24,-3,-17,-23,-44,0
-20,-14,-4,11,-12,8,-18,-4,-15,-2,-5,13,-9,-8,16,-8,1
9,3,-3,-3,11,-8,5,-2,4,-3,0,4,-3,0,3,4,2
-11,0,2,-4,-12,-1,-4,3,-5,3,-3,-11,-14,6,-4,-4,2
-2,22,7,12,24,14,6,-4,-1,8,-2,4,-3,14,7,-8,1
31,65,84,92,84,58,6,-43,-68,-71,-52,-27,-5,11,34,57,0
-3,-12,-9,-3,17,-4,-14,-26,-4,5,4,21,8,9,14,-7,3
41,32,-27,-51,-89,-117,-83,-35,25,33,27,33,-9,-38,-57,-87,0
-2,-1,-9,6,-1,-3,-3,1,-4,-4,-7,-1,-6,-4,-5,1,3
140,183,210,209,178,99,10,-64,-132,-173,-181,-165,-122,-63,-29,-7,0
1,2,-2,-23,4,1,-22,-5,-4,-16,8,-16,-6,-9,-12,0,1
-4,4,6,18,-16,16,13,11,-11,9,12,13,-19,13,26,3,3
2,-2,-1,-1,4,-2,0,-4,-3,1,2,2,4,-4,2,-1,3
2,-5,9,-2,-10,8,14,-8,4,-3,18,-22,-4,2,5,-6,1
-3,5,21,2,11,1,11,2,10,-7,36,-9,5,20,11,-5,1
5,11,2,8,6,9,5,6,11,4,12,1,12,4,11,1,3
-2,0,6,6,-1,6,11,-6,-2,6,1,-3,4,9,1,-11,1
-11,4,9,-8,-14,4,7,-4,-13,7,10,-29,-21,12,-12,-4,1
7,-7,-8,-8,9,-11,-8,-6,5,1,-3,-9,4,-2,-3,-6,2
7,-1,-2,2,17,-7,0,-3,-5,-1,-18,12,-2,-1,-8,-1,1
43,6,-3,8,48,5,5,-3,39,23,6,12,46,27,8,-2,1
2,11,8,-38,-1,1,-13,-4,5,14,5,-28,3,4,-6,-6,1
25,11,5,15,32,-2,11,14,25,17,-4,-4,39,3,-2,-6,3
5,-4,-7,-1,3,-2,-7,-1,-11,11,2,-4,-1,3,0,-4,2
7,-2,4,-1,9,-3,3,-2,8,-13,3,1,0,-3,1,1,2
1,-1,-2,4,2,-5,-2,7,7,-6,1,6,13,3,-1,-6,3
-3,-18,-14,-14,-16,-6,-12,-15,14,-8,-9,-25,-1,-1,-18,-8,3
11,-12,-5,6,7,-7,-1,2,6,-6,-14,5,-8,0,-3,1,1
34,102,149,128,84,45,-1,-30,-22,15,51,103,152,182,181,146,0
39,18,-13,-48,-60,-26,-4,-16,-33,-60,-92,-91,-75,-55,-33,11,0
6,-2,-4,-4,-27,13,2,7,-6,3,1,-6,-15,6,-3,3,3
22,14,-6,-27,-38,-36,-18,9,40,64,96,123,138,148,146,132,0
-44,-38,-40,-39,-30,-25,-8,8,15,19,22,40,46,47,43,33,0
12,-2,-3,-6,1,2,-7,6,11,18,-1,-19,13,-7,-1,4,1
-5,-5,1,2,-9,0,1,0,4,-2,-6,13,3,5,-3,4,3
-8,-4,4,2,-1,-9,7,-4,7,-13,-2,15,18,-9,0,-3,3
-2,4,-3,-3,-6,5,2,-6,-2,-6,-3,-3,-4,-4,-6,2,3
-5,1,0,-4,-4,-3,-3,1,-8,-6,-4,-6,-9,-9,-3,-3,2
-11,-22,-4,-9,-57,1,-8,18,-5,-24,-11,-36,-56,9,-21,-7,3
50,12,5,9,50,13,8,4,50,14,4,16,57,11,3,12,1
-103,-96,-88,-76,-48,-35,-50,-52,-51,-67,-64,-37,-21,-14,15,50,0
-12,5,-2,4,-7,-5,5,1,-5,-1,-2,0,-5,-7,2,2,2
1,1,12,-10,2,6,4,-9,-2,-1,7,-16,-1,2,-4,-7,1
39,-2,7,30,37,41,57,41,3,-8,2,12,48,94,87,28,0
-3,1,-3,2,1,1,0,-5,2,-12,0,4,1,-10,-5,8,3
16,10,-15,-14,17,-9,-13,1,3,14,-19,-5,1,-9,-9,10,1
5,34,59,60,69,80,64,57,69,53,9,-18,-41,-30,-40,-13,0
4,14,16,-5,-8,23,5,9,2,11,-2,4,4,8,0,3,2
64,31,2,8,73,25,5,3,52,23,16,14,71,24,6,2,1
-8,5,3,-1,3,-5,1,0,-6,2,5,0,-4,1,3,2,2
6,3,-1,0,8,4,0,-4,5,5,2,3,11,-6,7,2,2
-48,-52,-26,9,22,26,10,-8,-24,-41,-28,-24,-21,-27,-37,-27,0
179,137,81,51,12,-36,-93,-119,-114,-92,-59,-13,54,111,142,145,0
-86,-114,-133,-145,-148,-128,-91,-39,2,34,38,33,25,8,-13,-42,0
-1,-7,5,4,-6,3,6,-3,-4,-2,-5,20,4,-3,6,2,3
23,16,-8,4,28,21,-3,-10,-9,5,-12,0,-10,-10,-8,12,1
3,15,9,-1,-13,22,14,4,2,10,8,3,2,12,4,5,2
2,-3,-4,-9,2,-3,-5,-8,-5,-12,-12,-2,-7,-14,-13,4,2
-22,5,12,-4,-19,-2,9,2,-18,7,32,-45,-19,4,4,-13,1
-13,8,-10,-5,-8,-4,-4,-5,1,2,-6,-12,0,5,-13,-9,1
-6,-16,-3,8,3,-17,5,-8,-3,-10,-1,9,3,-12,3,2,3
119,92,69,84,96,99,102,128,134,131,126,93,28,-6,1,-28,0
6,8,3,-3,5,7,8,-7,-2,1,-4,3,6,-3,-4,0,1
1,14,9,6,6,-15,37,1,8,-1,23,-1,5,4,39,-19,1
-11,6,-1,4,-2,1,-2,0,-2,-6,3,-4,-1,-6,1,-3,2
-4,0,0,-6,8,-8,-8,-2,-2,2,-1,-7,10,-8,-2,-8,2
8,16,-3,-3,6,4,6,2,14,9,19,-10,11,24,7,-10,1
18,-1,0,3,24,-4,-3,1,14,6,1,-1,17,6,-4,0,2
59,45,28,-52,27,30,32,-10,21,36,43,-53,11,35,23,-21,1
126,101,71,58,39,7,29,60,92,103,77,42,11,-10,-3,-21,0
-10,1,-8,0,1,-12,-4,-2,-3,6,-10,-12,6,-3,-15,-6,1
4,-42,-63,-66,-54,-13,43,65,47,19,6,-20,-25,-17,-28,-52,0
75,79,86,80,70,27,-1,-28,-58,-57,-48,-56,-29,29,57,67,0
-6,-11,0,-19,-17,8,-16,-11,6,2,4,-25,-18,23,-11,-7,3
12,-1,13,-8,-8,5,24,-4,19,11,14,-25,21,16,-18,0,1
9,11,-10,-6,-2,16,4,-14,1,2,-4,-3,-9,20,-7,-8,1
-2,2,7,17,0,4,8,12,-1,12,6,19,2,18,14,2,3
-1,1,3,-9,-1,-1,-10,6,-2,1,2,-9,4,-1,-11,-1,1
-7,-5,-8,-10,-13,-6,-7,-5,4,-18,-5,-2,-6,-6,-4,-5,2
9,18,11,2,-13,22,2,28,8,31,11,-23,3,20,-2,8,3
1,-2,-6,2,6,-11,1,-1,-1,-4,0,-2,4,-3,-2,-6,2
5,10,20,-5,14,6,12,-3,4,5,31,-14,2,19,8,-4,1
-3,-14,-32,-47,-54,-63,-66,-80,-77,-65,-43,-36,-45,-45,-42,-28,0
23,1,6,-3,16,4,0,6,14,25,4,1,30,6,4,4,3
49,78,105,113,94,72,34,6,-18,-25,-18,-1,24,38,40,38,0
-34,-38,-32,-12,14,28,44,55,66,68,61,36,5,-12,-23,-13,0
-6,-5,2,-4,-18,5,-6,7,1,-11,-8,5,-5,-3,0,-5,3
8,14,4,-22,6,6,2,-9,9,19,9,-8,20,20,-2,-9,1
-6,2,-4,-12,-8,-3,-2,-7,-1,-13,1,-9,-11,-7,-7,3,2
0,1,-3,17,4,3,5,3,6,-5,-4,9,7,-3,6,-3,3
-3,-4,4,6,5,-7,2,3,-4,-1,6,2,-3,8,-4,2,2
37,75,81,52,-1,-29,-56,-115,-121,-136,-153,-115,-20,21,23,30,0
4,11,-1,3,-5,15,5,2,2,9,1,4,7,9,-1,1,2
21,6,-4,-16,-19,-20,-10,8,30,55,62,55,48,32,14,-11,0
-8,1,-8,14,-10,4,5,0,-6,-1,-12,2,8,-12,-10,-2,1
-1,7,-5,-1,3,-3,-1,1,8,-5,-3,4,-6,6,2,3,2
-18,-28,-14,30,-12,-10,-13,4,2,-16,-45,40,1,-11,-24,15,1
3,-2,-2,-6,-6,4,-4,-1,0,-9,-2,-11,-13,-3,-5,-1,2
31,13,-4,28,45,5,6,12,17,21,6,9,29,7,17,0,1
1,2,3,13,3,5,5,6,4,-8,-9,3,3,-10,1,-4,3
-37,-44,-48,-48,-38,-18,11,40,48,48,44,39,29,24,26,25,0
4,12,12,11,-5,9,9,26,6,14,2,-5,10,7,7,-7,3
84,84,68,41,17,-17,-55,-86,-101,-104,-89,-62,-29,-11,0,2,0
3,1,2,2,4,-2,4,2,-6,0,0,5,12,-10,-6,4,2
4,-8,-1,3,-5,6,0,-3,-5,-2,0,5,-8,7,-3,1,2
-6,18,47,62,58,51,35,36,45,45,29,-1,-26,-39,-31,-17,0
-3,14,7,-20,-8,24,-1,-17,-3,4,-5,-25,-18,2,-12,-1,3
113,86,59,37,15,-11,-16,-18,-18,-32,-38,-29,-8,20,63,103,0
75,22,-8,-38,-85,-95,-64,-36,-11,55,108,105,94,85,54,14,0
9,-12,-4,-13,-7,8,-1,-20,-2,-8,3,-4,-7,-4,6,-6,3
-11,-11,7,2,-39,-1,3,23,-4,-18,-3,-20,-40,10,-9,-6,3
7,5,-3,-38,-17,1,-13,0,1,1,-14,-17,-25,8,-12,1,1
-5,2,-6,8,-2,-4,4,2,6,-1,-2,-2,12,-11,2,-2,2
-12,-22,-4,-16,-53,5,-16,10,-6,-16,-8,-40,-54,13,-22,-7,3
42,26,-7,-16,32,19,-4,-1,32,11,23,-32,33,22,-7,-15,1
-8,3,7,-10,-7,8,-4,-5,-3,-6,-1,2,-13,-6,2,7,3
21,7,-20,-3,22,-5,-8,-5,8,2,-14,-4,6,-11,-8,5,1
5,-3,3,-12,0,3,-8,-2,3,-2,-5,3,-2,1,0,1,3
-33,-27,-17,3,-27,-26,-14,-7,-20,-23,-14,4,-27,-9,-11,-7,3
-2,-6,-8,0,-11,-9,-7,11,-3,0,0,2,-3,-8,7,2,3
12,19,-1,-2,12,19,-5,1,19,28,11,-18,12,28,18,-18,1
-3,-4,5,-1,-8,6,-1,1,-3,-1,-3,3,-1,-1,-5,2,2
-5,3,-6,1,6,-9,-4,0,-11,-5,1,4,-7,1,-8,3,2
-2,-5,17,16,11,-10,23,2,-14,20,36,9,-3,33,38,-18,1
-103,-110,-105,-92,-82,-65,-45,-36,-34,-33,-34,-30,-26,-25,-36,-59,0
-4,-11,-10,0,12,15,14,3,-10,-13,-23,-46,-70,-92,-112,-113,0
7,-3,7,-16,-3,13,-5,-10,0,0,4,2,4,7,2,-8,1
-32,-27,-19,-16,-32,-46,-34,-11,3,-1,-4,-5,1,10,23,32,0
-10,-3,-35,29,7,-11,-23,9,-12,-9,-42,38,0,-17,-23,14,1
6,3,6,10,17,1,4,4,12,12,4,7,29,-3,6,3,2
4,0,8,-6,2,1,3,-1,2,5,5,-12,8,-6,2,-3,3
-4,-1,1,3,-2,3,1,-3,-6,-2,4,2,-6,6,5,-6,2
-7,0,7,-12,0,-9,1,-4,1,-2,1,-1,12,-6,-4,-2,3
12,14,-6,-12,21,7,-8,-13,10,13,6,-11,26,10,-2,-16,3
12,7,0,4,14,0,7,2,27,1,3,14,27,-6,12,11,2
-15,8,30,25,18,6,-5,-22,-43,-56,-74,-79,-70,-53,-30,-8,0
-2,1,9,23,10,2,18,2,14,-4,3,20,33,-1,7,-6,3
4,-5,9,-1,-11,14,4,0,0,1,3,2,-3,5,6,-2,2
-11,-3,3,-10,-6,-7,-6,-1,-9,12,7,-9,-4,6,-4,2,1
-3,10,6,-3,-1,7,8,-4,-1,-4,1,-1,-1,-7,3,1,2
16,24,23,-47,13,1,8,-4,11,23,50,-59,12,10,25,-22,1
-10,-21,-3,-4,-58,1,-4,23,-5,-26,-13,-32,-52,4,-20,-8,3
10,-5,4,-27,-14,17,-13,-8,-3,9,10,-14,-21,16,2,5,3
-4,7,2,-7,-15,11,9,-7,1,-1,1,-4,-7,9,-2,-3,2
-7,6,-2,-14,-6,1,-7,-6,-10,-6,3,-3,-21,4,6,-5,2
3,-11,-5,-2,0,4,-24,5,6,11,-3,-15,13,-3,-10,0,1
-3,0,-6,-10,-2,-4,-7,-5,-1,-9,-6,-7,-13,-2,-8,1,2
-82,-49,-30,-22,-18,-4,5,6,4,-6,-12,-20,-28,-42,-62,-65,0
-6,14,7,-18,2,5,-8,-1,1,-2,-2,-7,-5,3,-2,-5,1
70,71,66,62,54,50,61,79,83,75,56,25,-1,-18,-2,9,0
-2,3,-4,9,4,1,-1,2,-4,-5,0,7,12,-11,1,-3,2
-41,-16,15,53,63,75,75,65,49,39,20,-14,-47,-81,-94,-99,0
-12,-16,-18,4,9,5,13,29,33,51,72,57,31,5,-10,-30,0
-6,-5,6,-4,-16,-2,7,3,4,10,-1,-36,-14,1,-1,-8,1
16,-3,6,8,-5,0,9,-6,-29,-47,-48,-55,-45,-30,-60,-79,0
-1,-2,-1,7,-1,2,1,2,-5,-7,1,5,1,-1,-5,-1,3
5,-5,-1,4,4,-1,4,-4,-2,0,-5,-1,-10,6,-4,0,3
-5,2,-2,2,-2,4,-6,2,-7,-3,-1,-2,-4,-6,-2,-2,2
1,7,-7,8,-3,5,0,6,2,-7,-13,16,11,-17,2,3,3
-1,-3,1,4,8,-9,5,-3,-2,10,-4,3,-10,8,8,2,3
0,-4,7,6,1,-3,1,10,-9,12,17,11,-13,21,20,3,2
-7,4,-2,-4,-11,-3,6,-1,5,0,-8,-10,13,-12,-26,12,1
-9,-19,-27,-35,-54,-58,-55,-48,-22,26,53,35,1,-44,-81,-110,0
67,56,8,-42,-75,-82,-51,8,64,94,108,95,42,-2,-34,-59,0
6,-10,-4,-3,1,-9,8,-10,5,5,1,3,3,4,8,-2,3
5,2,3,31,42,-14,20,-6,16,4,4,35,45,3,13,-2,3
-29,-55,-87,-106,-108,-57,-11,23,23,-7,-45,-69,-78,-79,-72,-58,0
81,64,33,6,-10,-25,-42,-52,-55,-46,-28,-20,-30,-40,-48,-60,0
-3,-7,-7,1,-20,8,-6,0,-5,4,-2,-3,4,-2,-7,-1,2
-102,-143,-178,-178,-153,-120,-79,-70,-69,-68,-57,-39,-20,-7,-13,-7,0
1,-5,-3,9,2,-4,-3,6,5,6,1,-3,12,-2,3,-4,2
-10,-35,-25,-16,-33,-11,-19,-23,-23,-7,-8,0,-39,4,-4,0,3
-28,-18,19,27,3,-10,-17,-39,-77,-122,-165,-180,-159,-130,-64,-26,0
-1,4,-3,-1,1,-1,-3,1,-5,-5,-3,2,-4,-9,-6,7,2
3,-8,-2,4,-5,5,0,-2,-7,-4,0,6,-11,8,-4,1,2
9,5,3,3,19,1,0,0,12,6,4,6,23,-3,5,3,2
-3,4,3,-3,-5,4,9,-5,4,14,26,-33,13,16,-3,-14,1
-12,0,-3,5,2,-13,1,0,3,-6,-2,0,11,-6,-7,-3,2
-4,-6,0,-4,1,-8,0,-6,-4,-7,-1,6,-1,-9,3,2,3
-4,6,4,-4,-7,2,1,7,0,11,3,-7,8,4,2,-7,2
11,-9,-5,-2,5,-5,-8,3,-7,16,-5,-10,-4,5,-9,1,1
-43,-27,-7,10,23,31,45,70,78,79,60,18,-32,-77,-84,-73,0
3,3,-1,-1,4,4,0,-3,1,6,1,4,11,-5,4,1,2
-1,0,-3,-10,-5,3,-4,-8,-4,-1,0,1,-2,-6,3,1,3
-54,-101,-127,-136,-131,-109,-62,2,56,93,110,110,104,94,79,48,0
-21,-63,-101,-110,-93,-78,-64,-54,-67,-83,-70,-50,-63,-74,-53,-36,0
-27,-25,-36,-35,-8,4,-15,-46,-44,-19,3,23,5,-15,-22,-17,0
1,2,3,-2,3,2,-2,0,5,3,-2,8,12,-8,6,3,3
-43,-26,2,10,6,-24,-58,-90,-116,-125,-121,-102,-92,-72,-56,-42,0
-3,-2,0,1,-9,2,3,-1,-1,5,-3,-3,-4,3,-5,5,2
92,94,61,5,-43,-78,-106,-129,-138,-124,-108,-84,-61,-48,-40,-38,0
21,-1,-8,-36,-13,14,-17,-9,14,11,2,-9,22,6,-6,-4,3
8,-25,-36,23,6,-10,-39,13,5,-9,-56,21,14,-24,-43,14,1
-1,-18,-2,2,9,-20,-3,-6,3,-5,0,1,2,6,-4,-6,2
3,-9,-15,12,-2,-6,-23,22,9,3,-5,15,27,13,-3,-17,1
20,30,48,-49,18,19,35,-24,21,30,47,-62,12,24,13,-13,1
-60,-73,-63,-33,2,32,48,48,18,-6,-31,-38,-46,-48,-46,-54,0
29,3,-4,2,28,2,2,-2,10,4,10,13,31,13,-6,0,1
9,16,10,2,-12,20,2,28,10,27,10,-22,2,18,-1,6,3
129,64,-29,-113,-170,-182,-164,-128,-96,-59,-29,7,61,108,117,79,0
44,76,60,28,-15,-60,-91,-98,-92,-72,-42,-1,41,65,77,64,0
2,-1,2,-5,-11,6,5,-1,0,-4,4,1,-9,9,-2,2,2
-105,-109,-85,-44,-5,28,46,55,51,31,5,-12,-30,-45,-46,-38,0
0,-5,1,0,11,-12,-1,-3,2,-6,-5,0,-4,-7,-5,6,2
66,86,102,109,106,95,78,38,-7,-53,-87,-107,-97,-69,-35,-2,0
-8,7,-3,-4,-8,3,2,-5,-2,-4,5,-7,-2,-7,4,-3,2
-1,-6,6,-5,-4,2,-1,-3,0,0,0,3,3,-4,3,2,3
-111,-110,-82,-30,6,12,26,0,-34,-56,-89,-108,-135,-122,-96,-65,0
32,42,31,4,-20,-28,-29,-20,-18,-30,-44,-45,-31,-19,-15,-17,0
4,-6,4,-3,-1,4,0,-4,-5,-1,1,2,2,-2,1,-3,2
-18,4,8,16,9,-2,4,-1,-4,0,18,3,0,7,16,-6,1
-16,-4,-3,14,-10,-2,-5,9,-19,-3,-22,14,-6,-10,-18,3,1
-14,2,1,13,-7,-2,2,9,-12,12,11,-13,-13,6,7,-1,1
9,5,-6,9,9,0,4,5,8,-5,-4,6,10,-8,-3,5,2
10,-4,-8,-23,21,-16,-12,-19,-2,-10,-12,-16,-8,-12,-19,-2,3
4,-3,-4,10,4,2,-1,2,4,-4,-5,8,-1,-3,8,-2,1
22,-4,1,11,26,2,-3,5,31,2,-4,5,24,11,-4,2,2
-13,1,6,-10,-7,4,-5,-9,1,7,-5,1,13,1,-8,-3,1
-3,7,2,-6,-1,7,1,-7,-3,15,-14,-6,-8,1,-12,11,1
101,126,134,149,160,157,114,27,-89,-203,-262,-266,-210,-127,-58,-12,0
-2,-19,-24,5,-15,-5,-28,8,10,-15,-41,12,-10,-11,-24,12,1
2,-11,-4,3,0,-12,-1,4,5,-3,-2,-2,4,-4,1,-3,2
1,-20,-8,-14,-13,-1,-3,-25,-8,-15,-2,-1,-11,-7,-1,-7,3
-7,5,6,-6,-16,7,7,-1,-2,-2,5,-1,-10,11,2,-1,2
-262,-200,-120,-81,-57,10,92,157,225,221,160,88,35,2,-81,-118,0
11,56,106,145,173,188,185,163,118,50,-7,-41,-63,-79,-84,-71,0
-2,5,2,-15,7,1,-3,-15,-2,-1,6,-17,3,-8,-7,-3,3
2,-3,5,10,3,3,6,2,7,-8,7,3,15,-7,-2,4,2
4,22,7,-24,-3,13,7,-9,0,10,18,-21,4,16,-2,-10,1
-2,2,-1,-19,-3,-6,-5,-5,8,-2,-10,-6,-2,2,-7,-2,1
4,26,37,-36,7,-2,30,-4,12,28,41,-44,15,11,33,-20,1
1,0,1,2,5,12,-3,-10,-10,7,7,8,7,0,12,-7,3
2,-4,-4,7,-2,-3,-1,7,0,-17,-11,7,1,-14,-7,-1,3
-3,-8,-7,2,3,-11,-11,3,-9,4,-2,3,1,-2,-3,0,2
-19,-14,-5,21,-9,-14,-3,9,-8,-10,-19,11,-2,-10,-23,8,1
-6,-6,-24,-30,-37,-38,-47,-77,-85,-80,-58,-38,-12,-6,-15,-48,0
4,4,4,-13,7,-7,-7,6,10,5,-13,-4,-2,5,-16,10,1
-6,12,-9,-15,-7,-2,-13,3,-2,3,-11,2,-14,-2,-1,9,1
-9,-8,-30,35,7,-15,-14,10,-11,-9,-43,44,0,-18,-17,16,1
-11,6,-10,-5,-12,-4,-7,3,-13,-9,-2,0,-14,-5,-10,4,2
4,-7,-4,-3,-10,7,-3,-4,1,1,-4,-4,-6,-3,-4,6,2
8,8,-6,-12,19,-1,-5,-14,5,6,2,-7,5,-5,3,2,3
-19,-5,-12,18,-8,-14,3,1,-1,-13,-26,11,4,-21,-18,7,1
2,-1,-11,-32,-44,-44,-35,-23,-8,-7,-14,-15,-2,17,19,7,0
-90,-57,-27,-7,1,-17,-51,-59,-71,-86,-97,-73,-28,9,16,1,0
43,65,49,38,25,-26,-92,-136,-186,-229,-218,-188,-148,-82,-11,27,0
8,6,18,-3,-2,13,17,1,34,6,6,-28,21,-1,0,-3,1
6,9,13,-24,-1,4,8,-7,-9,-5,-3,17,-13,1,4,7,1
10,-4,-4,-6,-1,1,-11,7,9,17,-1,-20,12,-7,-2,3,1
54,30,18,-42,28,18,17,-3,36,30,38,-57,18,32,18,-22,1
2,0,0,-3,-20,19,5,-4,0,-6,-1,2,-4,2,7,-9,2
-1,-2,-9,-6,-9,-1,-6,-1,3,-8,-8,-17,-3,-11,-13,-1,3
2,-4,2,-2,-5,9,1,-6,-6,-7,6,5,-5,3,0,1,2
18,-8,-11,-23,-3,-2,-14,-4,3,-14,-3,-9,-9,-4,-19,9,1
1,-1,-1,12,5,1,3,3,0,9,-12,13,9,5,-6,2,1
9,-7,4,-25,-13,16,-13,-8,-5,8,11,-13,-25,17,3,5,3
6,6,0,-22,-2,2,-11,1,0,13,9,-26,12,2,-6,-13,1
-66,-62,-40,-2,39,67,74,56,32,8,-14,-27,-19,-13,5,16,0
37,68,91,91,60,30,-13,-49,-95,-114,-99,-73,-43,-35,-28,-7,0
-4,7,3,3,1,4,2,3,2,-4,5,6,7,-6,-1,9,3
-53,-22,-1,26,46,59,30,-29,-34,-63,-38,-31,-38,-51,-62,-80,0
-11,-9,2,-8,-9,-1,-20,3,5,-8,10,-14,-5,-4,3,-1,1
7,5,-5,13,3,-1,4,14,8,-18,-15,2,7,-21,-14,3,3
-6,-5,1,7,-7,0,-1,5,-2,-7,-1,2,10,-18,1,-1,2
-6,14,-3,4,-6,7,7,2,0,-1,2,2,5,-8,4,2,2
6,-7,-5,3,-1,1,-2,0,8,0,6,-4,-8,17,-8,10,2
-9,-1,9,-2,-3,2,3,-4,-5,1,-1,2,-2,-5,2,2,3
-1,5,5,-4,-8,10,5,-2,-4,1,-1,-4,-1,-1,-11,4,3
-3,-11,-5,-7,-6,-6,-8,-6,-6,-9,-5,-4,-10,-9,-3,-1,2
-5,12,16,23,-6,18,17,18,3,-5,11,0,12,-10,5,3,3
-1,11,3,6,4,1,2,11,-2,5,14,12,-17,22,19,6,2
-142,-154,-119,-100,-103,-99,-93,-86,-94,-103,-136,-175,-186,-184,-179,-125,0
4,-6,-4,-13,-6,6,-9,-8,-10,-2,1,-11,-15,3,-8,-2,2
35,57,73,58,14,-42,-69,-79,-62,-39,-17,12,48,79,83,73,0
2,3,3,2,3,-3,6,3,14,4,-3,0,12,6,-3,-1,2
-6,2,-3,-1,-9,-6,9,-2,4,-4,-12,-6,10,-13,-29,14,1
-8,26,4,2,-13,20,7,11,-23,12,10,12,-32,6,20,16,3
-4,1,-2,-1,-6,-1,-2,4,0,2,2,-6,-2,-3,2,1,3
0,-9,0,12,5,-8,5,1,-12,-13,19,27,11,-5,30,-15,1
-131,-133,-140,-131,-123,-108,-58,-51,-70,-77,-76,-76,-73,-57,-40,-14,0
8,-1,4,3,26,-5,0,-6,6,1,4,11,12,1,6,4,3
-10,-18,3,-3,-34,-10,1,15,-4,-19,-7,-11,-38,6,-12,3,3
5,-22,-31,13,-10,-19,-18,12,26,-13,-34,-4,7,-17,-18,3,1
4,8,-2,2,13,3,-4,0,-6,12,3,1,8,2,0,-1,2
3,23,21,0,-38,-81,-108,-108,-102,-83,-52,-20,7,22,32,29,0
1,5,-3,-7,6,-2,-6,-3,-4,0,-10,17,9,2,-12,3,1
6,-7,1,5,20,-11,6,-9,6,-5,4,5,7,7,-1,-4,2
5,0,1,-13,-4,2,-2,-3,7,-2,-2,-8,-7,10,-5,-3,3
3,-5,-1,-5,7,-9,-5,-2,3,-6,5,0,12,-8,-7,5,2
17,2,-3,16,9,0,2,22,11,-13,-10,3,14,-18,-7,2,3
2,-1,6,7,-4,4,5,9,-1,5,5,9,4,5,3,6,3
36,85,118,130,96,17,-101,-221,-290,-302,-266,-202,-130,-73,-29,6,0
34,10,1,-9,-37,-73,-77,-69,-57,-24,-14,6,16,20,-2,-40,0
-2,-8,-2,-4,-4,-8,-3,-1,8,-13,-9,-3,-1,-10,-6,0,2
-50,-48,-43,-42,-33,-21,-37,-43,-39,-24,-21,-25,-31,-40,-37,-10,0
2,5,5,7,-4,14,2,7,5,-2,5,11,6,4,5,4,2
-20,-18,-12,-1,-13,-18,-29,9,6,-18,-15,-15,-18,-10,-10,-3,1
39,1,-15,-13,-7,-6,-16,-29,-34,-27,-21,-23,-7,4,21,29,0
11,3,-3,-10,26,-7,-7,-12,5,-7,-6,1,5,-10,-4,2,3
25,58,74,46,22,15,19,-3,-30,-20,-13,-6,-1,-16,-26,-40,0
102,187,222,222,175,103,23,-54,-127,-180,-197,-187,-155,-98,-32,32,0
2,0,-7,2,-9,8,-5,2,-11,-2,-4,-3,-7,-6,-7,0,2
1,-1,-2,11,-4,4,4,4,1,-17,-10,6,0,-13,-5,-2,3
5,11,-6,23,7,9,17,1,13,3,0,-3,9,3,5,-4,3
-85,-83,-100,-98,-89,-112,-141,-140,-149,-167,-171,-139,-94,-48,1,15,0
-6,-2,-5,-4,3,-8,-4,-7,-10,6,1,-2,-5,-3,3,-1,2
-70,-79,-45,-32,-16,33,51,13,-44,-70,-92,-112,-69,2,34,61,0
-7,4,6,-1,-7,2,0,7,1,5,2,3,3,8,6,-6,2
-8,-5,3,5,-11,-1,3,4,12,-5,2,-4,-3,10,-1,-1,2
6,19,10,2,5,22,3,6,5,8,4,-8,5,10,-5,-1,3
-6,6,1,-1,4,-7,4,-1,5,-4,-1,-2,12,-5,-4,-5,2
11,-16,-38,-39,-47,-50,-53,-42,-26,-6,2,-5,-17,-21,-15,-17,0
21,5,-1,4,23,6,-1,1,3,13,-8,8,10,2,4,0,1
-4,7,5,-14,0,4,-9,-1,-10,15,-6,0,3,3,-5,-2,1
4,14,4,8,-29,25,2,32,2,12,-4,-9,-3,12,-8,1,3
-1,2,6,1,-8,6,1,7,0,-4,-6,-1,-8,-1,-3,1,3
13,-3,-10,6,10,-5,-1,1,5,4,5,4,17,-3,-1,6,1
-5,6,-1,-3,-3,1,2,-3,-13,1,2,-1,-19,2,0,5,2
-2,-6,4,3,-5,4,-2,1,4,3,-3,12,5,5,5,0,3
27,-2,-1,1,32,3,-5,-4,18,13,-14,1,19,2,-3,0,1
-5,9,6,-14,-12,14,0,-6,0,10,9,-30,-12,12,1,-12,1
-4,10,16,26,-2,17,18,16,3,-2,11,4,16,-10,6,4,3
-82,-117,-146,-161,-174,-178,-155,-85,-4,54,62,22,-36,-73,-91,-102,0
5,6,1,-12,10,-4,-5,-2,14,-13,2,-8,-3,0,5,-5,2
-1,1,5,-1,-1,4,0,0,-7,7,2,2,4,3,-3,0,2
-3,-6,-3,-1,5,-8,-5,-5,-9,-3,-6,-1,-10,-9,2,-2,2
-109,-121,-140,-149,-149,-132,-93,-56,-21,-1,5,-12,-39,-62,-76,-78,0
-19,12,36,72,130,166,159,125,81,30,-21,-40,-37,-14,31,64,0
1,9,8,4,9,8,-2,7,2,16,5,-7,4,16,1,-4,1
2,-1,1,6,10,-1,8,-10,3,1,-2,-2,10,-3,-8,1,3
-35,-58,-84,-104,-112,-111,-87,-48,1,23,41,51,61,64,42,-1,0
-2,-6,-16,15,-8,-16,-2,17,13,-2,-18,24,12,-6,19,-9,1
-4,1,8,-6,-6,11,-2,-5,-12,7,11,-16,-3,0,0,-7,1
11,-4,6,27,40,62,54,18,-57,-26,8,8,-22,-14,-4,8,0
9,7,-1,16,4,9,5,14,12,6,2,22,18,7,16,0,3
-3,-3,-20,6,-8,-5,-11,4,11,-8,-24,13,-5,-4,-3,4,1
-12,-2,-9,-20,-40,-48,-48,-38,-40,-50,-70,-96,-124,-139,-126,-100,0
-73,-47,-31,-50,-55,-38,-58,-66,-45,-27,-20,26,94,102,86,77,0
6,9,-1,-14,10,-1,-6,-3,-1,24,10,-16,-7,15,6,4,3
39,43,30,19,-13,-42,-44,-26,-16,8,36,47,49,29,-7,-48,0
1,-8,6,1,1,-6,3,1,10,-8,-6,6,3,-4,-1,4,2
-5,-1,-3,-1,2,-13,1,0,-7,-2,-1,-1,-2,-7,-5,3,2
7,5,1,-10,14,-4,-8,-1,-5,30,1,-1,7,21,7,-10,3
-4,0,4,8,-1,4,3,2,7,-8,-1,6,9,-7,-2,4,2
20,-5,-6,-18,-27,24,-4,-2,-9,4,0,-24,-32,12,-10,1,3
4,-4,-1,2,6,-7,-1,4,-2,3,1,-1,2,7,-3,-5,3
-17,4,15,87,102,58,62,70,52,-1,-46,-44,-20,-45,-37,4,0
1,-3,8,6,-6,6,4,10,5,-3,4,3,2,0,5,2,3
124,92,58,20,-21,-38,-47,-69,-74,-58,-29,4,30,50,73,75,0
4,7,5,4,-5,15,13,-3,-4,0,4,4,-5,1,3,6,2
-9,-3,2,-8,-9,-6,-4,0,1,13,2,-15,4,7,-6,-4,1
-6,0,-3,-11,-15,-2,3,-6,-8,5,-3,-11,-7,2,-4,-7,2
5,14,4,3,-8,27,13,-6,-1,10,2,8,3,10,1,5,2
3,1,7,5,15,-5,7,-2,15,0,2,14,23,0,5,4,2
92,95,125,123,123,118,72,31,51,12,-17,-29,-24,-15,15,26,0
1,8,2,5,-14,7,4,19,9,7,0,-7,-4,7,2,5,3
-6,2,-3,-5,-7,1,0,-6,-13,1,2,-4,-18,2,1,1,2
3,-5,-7,6,9,-13,-5,6,7,7,-5,2,-7,18,3,-4,2
18,-3,-13,-12,16,-7,-12,-7,1,-1,-1,3,19,-3,-14,1,1
-9,8,0,1,-2,4,2,-4,-7,10,1,-2,-1,-1,6,-1,2
4,18,14,15,33,-1,15,5,20,16,3,11,43,1,7,-2,3
3,7,-1,-1,12,-2,1,-4,-21,10,7,6,-11,3,8,1,2
-2,-5,3,3,-3,2,3,-1,6,-15,-6,1,-6,-8,-2,1,2
-4,-8,15,2,-10,10,10,-5,16,25,2,-21,2,12,21,-14,1
-135,-147,-130,-94,-57,-5,43,82,100,91,62,32,-1,-18,-26,-16,0
-6,-49,-93,-127,-141,-120,-60,4,30,34,45,61,30,9,-1,-7,0
31,-5,-2,-12,19,3,-11,3,27,12,-11,-6,20,12,-5,-4,1
-5,10,8,-31,-3,2,-13,-3,-3,12,0,-16,1,0,-5,-2,1
-4,-10,-15,5,-29,-4,-1,10,-9,-15,-9,3,-27,-9,3,3,3
-49,-58,-54,-35,-19,-5,-11,-11,-3,10,24,30,24,8,-3,-25,0
-143,-213,-242,-226,-185,-121,-50,15,74,123,145,133,87,14,-83,-164,0
2,-8,-6,-14,11,-11,-8,-16,-6,-2,-2,-13,-10,-4,-9,-1,3
6,14,12,33,62,63,44,32,15,-5,-32,-38,-40,-40,-20,-7,0
32,29,29,15,-2,-13,-6,17,41,52,59,74,69,85,88,84,0
3,-6,7,7,1,-1,1,10,1,1,9,12,3,1,12,7,3
-1,20,43,65,85,81,61,29,-17,-63,-95,-102,-103,-83,-60,-34,0
3,7,-1,7,-3,11,7,1,6,5,9,-1,-3,19,5,-2,2
5,-20,-11,-12,8,-22,-6,-18,-6,-15,-9,2,-14,-7,-2,-4,3
12,-10,-6,-4,2,0,-8,-3,3,6,1,-7,-3,5,2,-2,2
0,10,0,-2,-7,6,5,5,2,11,0,4,1,8,3,6,2
0,-10,-2,6,-6,3,0,-2,-10,-6,0,5,-17,12,-7,0,2
-2,-6,-51,21,-3,-9,-32,6,7,-11,-48,16,-8,-11,-18,2,1
-134,-103,-55,-24,-4,4,9,13,20,34,32,32,39,27,16,9,0
7,-1,4,8,24,1,-5,-3,-2,-2,-16,13,15,-7,-24,8,1
-3,-7,-4,3,-5,-5,-4,3,-1,-10,2,1,0,-6,2,-5,3
-8,-1,-11,-3,-13,-3,-12,4,-12,-12,-22,-5,-16,-18,-20,3,1
-97,-177,-220,-233,-214,-162,-83,-6,48,70,66,53,19,-25,-69,-121,0
-9,-12,0,-4,-3,-6,-3,-13,-2,-1,-8,1,1,-7,-6,2,3
2,-8,5,1,3,-3,0,0,9,-2,2,5,8,4,-1,3,2
15,5,-1,-33,5,5,-20,-4,8,-9,18,-33,-11,4,-7,-3,1
9,-4,1,-14,-14,14,-9,1,6,3,1,-3,7,-3,-4,5,3
19,35,48,-53,18,21,32,-23,20,25,49,-65,7,21,13,-12,1
-76,-27,25,22,-23,-56,-44,-45,-74,-27,-20,-28,1,-26,-12,32,0
1,6,11,3,3,2,10,23,46,78,101,112,103,60,1,-53,0
7,11,-6,-11,-5,6,7,-7,5,-7,0,0,-8,5,1,1,1
25,12,21,-35,17,-1,14,-6,25,13,47,-45,-1,28,31,-18,1
-106,-93,-71,-47,-22,3,14,15,32,56,63,53,11,-46,-94,-122,0
-1,-3,0,13,2,1,3,3,0,9,-11,13,12,5,-8,2,1
-151,-132,-96,-34,35,110,153,172,140,79,15,-44,-89,-126,-142,-157,0
-23,-3,-5,-12,-32,1,-4,-7,-32,-6,-2,-6,-32,-9,-5,1,2
-30,-64,-119,-169,-176,-168,-143,-124,-114,-112,-107,-100,-103,-82,-46,-37,0
8,9,4,-1,9,13,4,-5,1,22,17,0,1,13,13,12,3
1,0,-4,-6,-1,2,0,-10,-5,2,-5,3,-1,-9,4,1,3
-64,16,80,124,145,158,143,109,68,25,-33,-83,-111,-103,-59,1,0
73,61,47,22,-4,-10,3,4,1,13,11,6,-4,-35,-53,-52,0
244,261,238,171,80,-18,-104,-150,-169,-163,-137,-77,0,82,157,233,0
29,14,-3,28,43,5,6,14,15,19,8,9,28,8,15,0,1
15,27,32,-50,15,1,14,-6,10,31,57,-63,14,15,31,-26,1
-1,10,-4,-12,-7,16,-3,-13,4,8,12,-24,-23,30,2,-8,1
4,-8,-4,10,3,-1,-13,14,17,1,22,-17,7,22,9,-16,1
0,15,20,4,23,57,29,31,73,117,133,144,169,184,200,197,0
5,-2,3,-3,7,-1,0,-2,-3,-5,-6,4,-4,-9,-3,6,2
13,-55,-96,-127,-100,-101,-55,23,53,53,-12,-74,-106,-87,-91,-94,0
3,-29,-60,-60,-51,-34,-18,-6,20,26,19,21,31,29,7,-29,0
9,-2,-7,-21,22,-13,-11,-18,0,-11,-11,-13,-6,-13,-16,-1,3
-3,-4,-7,-15,-19,0,-8,-1,-16,1,-2,-10,-17,-5,0,-3,2
1,-2,-1,1,10,-5,-5,-1,-1,5,-6,-3,-16,10,4,-3,2
-3,11,-10,11,6,2,3,-1,-1,1,-1,6,12,-14,2,5,2
-1,-6,6,3,-5,4,6,-3,-4,-2,-5,21,5,-4,7,2,3
98,65,32,-24,-53,-31,1,26,64,96,85,55,17,-25,-47,-23,0
0,-3,1,-10,3,-7,0,-7,-1,-6,0,3,3,-10,0,3,3
-4,11,-3,2,-7,7,3,2,2,7,-1,5,1,10,-2,4,2
22,30,41,49,53,55,51,30,8,-13,-24,-46,-62,-86,-102,-99,0
-120,-144,-143,-127,-101,-65,-16,29,76,131,178,186,152,89,20,-31,0
-7,-3,0,-14,-53,21,-2,9,-10,-7,-3,-26,-47,11,-8,-1,3
20,1,6,-5,13,5,8,-4,-4,25,11,-11,-4,19,9,-3,1
-2,-3,-1,3,3,-2,-8,4,-18,8,4,2,-10,3,5,-1,2
-24,11,16,-45,-34,13,-6,-14,-22,11,2,-47,-37,6,-17,-8,1
24,19,9,7,36,17,8,-1,37,15,8,3,44,10,10,-1,1
-4,7,-8,-1,6,-1,-15,4,4,1,-12,-4,9,4,-18,-7,1
2,3,4,6,-4,14,11,-7,-3,16,3,-25,-8,15,-5,-12,1
-4,-8,-8,3,1,-3,1,-16,-1,-8,4,-2,6,-3,-8,-1,3
13,-9,-2,-4,16,-14,-3,-1,30,-4,-4,3,31,-2,-6,2,2
3,9,17,-4,2,15,16,-7,8,-6,2,17,3,2,4,11,1
8,8,15,-6,18,10,3,-6,0,18,23,-8,11,18,7,-3,1
4,1,2,-4,-17,18,4,-2,1,-2,0,0,-2,3,8,-10,2
3,-13,-4,-4,5,-12,-12,1,-4,-2,1,-2,-16,9,-12,12,2
-18,0,-2,-18,-12,-16,-7,-2,5,7,4,-18,-1,4,-6,1,1
-1,-5,1,-6,-13,2,-2,2,0,-4,-3,-7,-2,-6,-1,-6,2
-5,13,16,7,-1,13,17,1,3,6,11,2,0,17,7,-2,1
-71,-76,-95,-92,-55,-32,-69,-99,-114,-145,-139,-109,-127,-138,-129,-84,0
-24,-6,-5,12,19,-11,14,-45,-22,-2,3,36,9,-2,17,-8,3
0,1,4,8,19,-9,12,-8,6,-1,4,12,7,5,7,3,2
-6,-1,2,-5,-9,4,-8,3,11,-13,-2,-8,-3,2,-7,-3,2
-4,10,1,-14,-3,-4,-6,5,4,4,0,-13,6,-10,2,-2,1
-61,-55,-64,-75,-89,-100,-108,-100,-85,-68,-48,-25,-12,-22,-42,-61,0
-83,-91,-93,-112,-116,-170,-198,-188,-192,-206,-182,-124,-77,-70,-51,-24,0
-18,-4,-4,9,9,-7,4,-23,-14,7,2,-15,-21,14,-12,-1,3
6,14,20,1,21,7,9,3,15,11,9,7,23,2,11,5,1
7,-2,-2,-2,13,-7,-5,-1,3,1,2,-2,5,1,4,-5,2
12,8,5,-15,9,11,-3,-7,3,17,11,-4,12,19,7,-10,1
0,-9,-9,-8,2,-6,-11,-11,2,-4,1,-7,2,-2,-4,-4,3
4,14,4,-22,4,6,1,-9,7,17,8,-7,17,18,-3,-8,1
-14,-3,-8,9,1,-21,-6,11,9,4,6,-1,16,17,14,-30,1
-7,2,-7,13,-9,7,3,0,-4,-3,-14,7,6,-8,-10,-2,1
-8,8,0,-2,-2,-1,3,-2,-15,0,1,0,-21,3,-1,5,2
-60,-54,-64,-73,-82,-59,-21,4,13,23,0,-11,3,21,51,47,0
1,-27,-33,-9,-21,-24,11,34,23,8,11,-20,-35,-8,20,11,0
4,7,18,25,28,27,20,10,-10,-18,-20,-16,13,32,12,10,0
12,-4,-25,-12,-7,2,-30,7,23,-8,-27,-4,0,-2,-23,8,1
1,3,-3,19,5,4,6,4,7,-5,-1,12,8,-2,10,-2,3
-88,-79,-61,-18,20,57,52,18,-12,-31,-32,-42,-65,-99,-116,-102,0
98,135,161,139,123,100,68,0,-42,-70,-110,-80,-9,16,43,93,0
7,10,-1,2,-7,25,7,-6,-1,8,-2,8,4,9,-5,6,2
1,-8,-6,28,42,-17,2,-12,4,-11,6,35,12,-2,16,8,3
30,5,13,-22,31,6,-7,-4,20,-2,1,-8,33,-18,-10,6,1
11,-19,-9,-1,3,-11,-6,-4,2,-5,2,-8,4,2,-13,-2,2
14,1,-1,-7,12,10,-15,-1,14,4,-2,-14,14,-1,-8,-4,1
-3,-7,-3,3,10,-15,-1,-5,-4,0,8,15,3,-2,12,5,3
-5,7,-11,9,1,2,3,-7,9,-12,-12,0,1,0,-19,3,1
1,-9,1,-8,5,-11,-6,-4,-1,2,-8,-2,6,-8,-9,2,2
-2,-7,-3,-1,-7,-2,-2,-1,2,2,-8,13,2,9,-5,3,3
0,8,3,-3,-22,11,1,18,5,-13,3,-18,-6,-12,-6,1,3
23,-2,-1,7,27,-8,1,7,44,-5,-2,11,41,1,0,6,2
0,-2,7,-1,-5,6,6,-3,0,-5,-5,21,8,-5,3,5,3
-113,-81,-36,-2,26,51,60,63,61,52,33,6,-23,-51,-68,-52,0
14,-7,-21,14,2,-9,7,2,18,0,-7,10,17,3,19,-19,1
-70,-100,-125,-115,-69,-20,55,55,56,15,-39,-69,-94,-113,-113,-119,0
-3,21,12,-20,-2,7,-3,7,-6,23,5,-25,-9,8,0,-1,1
-9,11,0,6,-1,-2,8,3,-7,8,7,2,2,-2,8,3,2
36,4,-1,-12,25,11,-8,-1,29,15,-5,-11,31,3,-3,-5,1
-16,-7,-9,13,-9,-9,1,-2,-25,14,6,20,-14,7,16,5,3
-1,0,1,-3,6,-10,-3,3,-2,7,4,-6,5,8,-7,-2,3
-1,-1,2,-10,24,1,3,-38,3,36,19,-5,26,19,9,-2,3
-2,14,5,9,-15,20,10,11,-2,3,3,-2,-6,2,-1,7,3
-8,-2,6,-8,-1,-9,2,-4,3,-6,-1,5,14,-8,-2,-3,3
-5,-8,-6,-1,9,-11,-5,-11,-7,-3,-8,1,-9,-8,3,-3,2
3,14,-1,19,7,24,19,-14,-1,21,-6,6,10,13,0,-3,1
-78,-77,-102,-108,-88,-41,24,43,33,30,16,2,-6,-11,-26,-1,0
5,1,3,10,5,4,2,7,2,-4,-8,1,4,-8,-3,-2,3
-31,-33,-38,-38,-28,-11,4,2,-6,-32,-63,-81,-87,-89,-86,-74,0
3,-5,-9,-4,-9,1,-4,-4,10,-4,-2,-5,1,16,-8,-9,1
2,-3,-1,1,-3,1,-1,2,-6,-6,1,-4,-7,-1,-6,-1,2
1,3,-4,10,7,0,0,3,-3,-4,2,6,13,-11,2,-4,2
-1,-4,-2,-3,-7,1,-2,-2,-2,-2,-4,-1,0,-11,5,-3,3
5,8,3,-15,16,-1,-8,-5,28,6,-4,-8,27,2,-16,9,1
28,33,35,-42,16,23,36,-22,6,33,56,-35,21,38,13,-12,1
-12,-6,-16,-2,-8,-19,-14,6,6,-6,-1,-23,-5,-12,-8,1,1
26,84,118,124,114,65,15,-12,-18,-10,39,98,123,105,79,61,0
-4,6,8,16,17,5,13,-9,-4,7,13,12,-8,20,15,2,3
2,8,4,23,12,-10,11,23,0,9,-3,4,4,-1,9,-1,3
-8,6,-2,1,-2,-2,2,-1,-7,-4,-1,2,-8,-5,-2,4,2
-6,14,8,-19,0,6,-9,1,1,-6,-2,-5,-4,1,-3,-5,1
1,-4,1,9,11,-10,1,6,17,-12,-3,5,-3,3,2,4,2
-24,-32,-28,-18,-10,5,30,53,60,57,46,28,24,29,47,52,0
12,6,0,15,14,9,9,1,8,12,1,5,13,8,6,-1,1
5,-4,-5,-4,-27,13,1,5,-7,0,1,-6,-16,4,-4,3,3
6,-3,5,6,25,-6,2,-7,4,3,6,13,12,3,7,4,3
-6,0,-3,-3,-8,-1,-3,-1,2,-1,-3,2,-1,1,-3,3,3
2,0,2,14,7,2,12,-4,2,1,3,6,12,1,-7,5,3
-100,-66,-21,9,20,3,-19,-42,-62,-67,-75,-75,-72,-65,-60,-50,0
-4,24,59,90,106,105,92,69,50,42,26,11,-14,-35,-36,3,0
-2,-4,-7,-3,-10,3,-4,-5,-1,-6,-6,-4,-3,-4,-8,-3,2
-122,-181,-214,-220,-200,-160,-101,-25,35,91,136,162,153,105,37,-57,0
136,31,-71,-163,-203,-195,-162,-115,-61,-13,24,52,69,73,45,6,0
2,20,0,4,9,12,1,5,6,22,8,-8,5,17,7,-2,3
51,-4,-10,32,42,31,11,-16,22,-13,-6,44,28,-4,20,3,1
-2,-1,2,-3,-8,5,-2,1,-3,-4,-3,4,-5,-3,0,2,2
-1,-3,3,-3,7,-4,6,-14,1,-5,-3,9,4,-6,-2,7,3
1,2,-10,12,8,-4,3,-3,4,1,-9,7,-1,-2,4,2,3
22,-6,-41,-66,-72,-54,-17,36,90,86,23,-17,-23,-26,-21,1,0
-69,-66,-59,-38,-9,21,53,78,85,86,72,56,37,-3,-17,-43,0
7,-6,2,-11,2,-4,-10,4,3,-3,-3,-8,7,-4,-15,1,1
20,-3,-31,-53,-59,-67,-78,-86,-85,-81,-76,-70,-70,-83,-97,-100,0
1,-5,-1,14,4,-4,3,5,8,5,1,2,17,-4,4,-2,2
29,60,77,81,82,84,80,82,88,85,69,55,39,25,11,14,0
3,-1,-1,6,0,-5,-7,0,13,33,51,53,44,29,16,-7,0
2,-10,-10,-5,-2,2,-19,-4,-11,-12,1,-3,-9,-17,-4,4,1
5,-3,3,-5,8,-1,1,-6,-3,0,5,0,-1,-4,7,-1,3
10,13,11,5,6,23,10,1,6,7,8,6,5,7,7,7,3
5,-2,4,-1,7,-1,0,1,7,-2,-1,-3,4,-4,1,0,2
49,13,-53,-137,-206,-249,-253,-239,-194,-143,-106,-70,-34,24,84,153,0
-4,5,-3,7,1,3,-1,2,-3,-5,-1,7,10,-9,-1,-3,2
-7,-13,-36,-75,-114,-145,-147,-126,-88,-37,9,42,57,70,66,51,0
11,-5,3,17,21,0,-3,8,24,-2,-3,1,18,9,-5,-2,2
25,4,-12,-14,21,-7,-9,-3,-4,1,12,4,16,9,-8,-4,1
-29,-24,-37,-57,-65,-60,-43,-18,-4,4,9,13,2,1,2,-2,0
4,9,-7,24,4,8,16,3,12,-1,-1,1,7,-1,8,-4,3
-13,10,5,-10,-22,-62,-74,-71,-51,-43,-51,-54,-33,-30,-18,-14,0
-1,-4,2,11,4,1,1,3,-1,3,-3,7,12,-5,0,0,2
-2,-15,-20,7,-12,-4,-13,-1,13,-15,-15,-5,-4,4,-21,-2,1
4,1,-9,-6,18,-4,-7,-16,2,-11,0,-4,6,-7,-7,-4,3
-84,-95,-117,-131,-141,-137,-126,-114,-108,-105,-94,-87,-86,-91,-113,-137,0
-1,-14,1,3,-3,-4,1,-5,-7,-13,-8,21,-2,-10,2,3,3
9,7,-2,0,6,7,5,-4,13,-5,-1,-5,10,-4,-4,0,2
1,4,14,5,1,9,12,1,2,21,15,-4,12,17,11,-7,1
1,5,6,2,2,0,23,-11,-5,-6,-10,15,-3,-5,-5,7,1
-14,-23,-2,-12,-12,-16,-9,-14,-8,-27,-10,-1,-1,-24,-9,-13,3
-34,-20,-6,-9,-12,-7,-3,11,23,25,13,0,-12,-34,-52,-54,0
-6,-5,-1,-2,-4,-3,-6,0,-3,-7,-7,5,6,-11,-7,0,2
46,67,51,28,18,9,3,3,-23,-50,-77,-72,-65,-68,-73,-72,0
-5,-14,-3,7,4,-15,5,-9,-1,-10,-1,5,3,-12,0,2,3
-7,2,-2,-7,-13,0,0,-1,-9,-3,-5,-11,-3,-9,-11,-4,2
7,3,3,30,42,-14,21,-6,17,8,5,33,47,5,14,-3,3
6,20,6,-12,23,9,-5,-6,17,8,-8,-2,15,1,0,-1,3
-44,-19,-9,28,3,-30,21,-37,-32,-53,-16,65,4,-49,15,-5,3
2,1,-5,8,4,-3,-2,6,7,-6,-2,4,7,3,-6,-2,3
27,13,2,-9,7,24,8,-5,49,-7,3,1,61,-16,-1,3,2
85,59,17,-21,-51,-62,-75,-80,-86,-69,-58,-29,10,35,55,77,0
44,70,74,65,51,45,41,34,22,-2,-8,0,17,27,44,67,0
-3,-19,-4,-2,8,-24,-6,-6,-1,-4,0,1,0,6,-4,-6,2
-8,-3,-28,23,1,-19,-12,14,9,-21,-41,41,10,-25,-17,20,1
1,0,-5,-3,1,0,0,-9,-4,1,-4,4,1,-11,5,1,3
-79,-130,-174,-190,-159,-87,14,80,105,68,14,-29,-19,17,28,-5,0
-35,-3,18,28,20,-9,-49,-99,-122,-140,-117,-78,-30,1,-1,-11,0
-4,-6,-1,-1,1,-7,1,-7,-5,-5,-1,7,-2,-9,5,1,3
-2,-4,-2,3,-3,-3,-1,0,-4,7,1,-3,0,4,1,-4,2
-36,-7,11,11,-7,-38,-66,-97,-117,-132,-144,-153,-147,-120,-88,-47,0
3,-2,-3,-11,-2,0,-7,-4,7,-18,-10,-6,-3,-10,-8,-4,2
-4,3,-8,11,1,1,6,-6,10,-11,-6,-4,1,5,-17,-1,1
-1,-3,-7,-1,-10,4,-2,-4,-1,-5,-5,-4,-1,-6,-6,-3,2
-5,15,7,13,-13,17,10,17,-4,9,1,-2,-5,5,-3,6,3
-2,-7,9,-3,-13,4,9,-3,4,4,10,-34,-10,5,-2,-8,1
-11,-3,-1,-7,-7,-10,-5,0,-28,2,2,-3,-21,1,-5,-2,2
15,31,34,17,-12,-49,-83,-108,-124,-138,-117,-73,-22,10,32,41,0
27,14,-3,28,40,4,6,15,13,15,8,8,25,7,11,1,1
3,3,6,-8,9,-1,1,-7,4,1,4,5,11,-5,2,5,3
1,4,-1,-1,-7,7,2,0,-3,2,4,-8,-9,4,1,0,2
-2,-7,6,0,-3,-1,4,-4,3,-1,-2,8,7,-4,2,3,3
5,5,14,-6,5,10,7,-4,0,3,3,5,3,-1,8,1,3
9,5,-7,-3,21,1,-3,-14,5,18,6,1,24,11,3,-8,3
25,47,53,44,30,9,-15,-29,-46,-55,-50,-31,-17,-6,9,25,0
-5,-3,9,-28,-14,9,-14,-8,-11,8,10,-7,-26,15,7,5,3
-12,-18,-1,2,-55,-1,0,27,-4,-27,-14,-25,-44,-2,-16,-8,3
23,-1,10,2,24,3,6,1,37,6,6,0,40,8,-2,2,1
35,1,-9,-7,27,3,-14,3,17,3,6,-8,17,9,-5,-3,1
-2,1,-8,2,-9,4,-3,1,-3,3,-5,-1,7,-3,-5,-4,2
11,1,-12,8,11,-1,-4,1,7,-1,6,5,8,6,2,0,1
-2,4,6,-13,-10,10,-5,0,1,10,0,-16,-3,-1,-4,2,3
1,4,1,-4,9,-4,-1,-3,0,-19,1,-2,-5,-8,-3,-3,2
73,50,61,50,42,39,38,20,12,11,20,17,11,10,10,0,0
-15,-12,-27,-50,-39,-2,90,151,182,181,143,65,14,10,33,43,0
16,24,2,12,25,31,7,-10,-10,10,-4,8,-8,-1,1,11,1
-7,3,-2,4,-5,0,-2,4,-5,0,1,-5,-6,-5,1,2,3
-156,-164,-152,-113,-55,0,45,63,41,2,-60,-120,-180,-201,-190,-158,0
87,69,59,20,-17,-34,-27,-6,21,69,99,106,106,96,70,55,0
1,-2,3,-1,11,-5,-1,-3,3,6,-4,-4,-14,10,7,-2,2
41,37,35,27,23,25,35,51,54,59,45,31,15,-10,-23,-37,0
8,8,3,21,14,-9,10,24,3,12,-3,2,6,0,7,1,3
1,-14,-10,-4,-3,-13,-14,3,-11,-6,-20,4,-1,-19,-19,7,1
9,-5,14,1,13,10,6,-10,3,23,14,-4,11,18,12,-5,1
-26,-4,-4,13,-19,-10,-5,13,-15,-32,-17,9,-22,-21,-9,-3,3
-7,1,-3,-7,-7,5,-9,-6,-7,-8,-2,-4,-6,-11,0,-4,2
-13,-8,-2,20,20,-2,-32,-57,-55,-45,-27,-31,-42,-60,-55,-35,0
70,128,160,153,104,29,-39,-71,-69,-55,-17,6,9,-3,-16,-11,0
37,35,9,-44,-94,-138,-158,-147,-123,-96,-84,-60,-37,-19,0,26,0
4,0,-11,-1,18,-7,-12,-7,1,-3,8,-3,13,-2,-8,-2,3
-3,10,-15,8,-3,2,3,-1,3,-5,-6,3,-2,-7,-6,10,1
-3,3,5,-11,-12,9,-5,2,1,8,1,-16,-2,-1,-4,1,3
10,-6,6,20,4,11,27,-13,13,-9,25,-3,10,6,15,-4,1
2,2,3,0,2,-1,2,3,4,12,11,-9,5,12,6,-5,3
22,2,5,8,30,5,1,1,35,8,17,6,40,17,9,1,1
-2,3,1,-18,-48,-73,-80,-56,-9,48,80,89,75,50,18,-1,0
-12,2,38,56,66,81,97,118,116,104,88,70,59,52,47,27,0
-14,6,4,2,-9,-1,3,4,-14,-1,-1,-2,-17,-1,-2,3,2
-96,-50,-37,-37,-31,-35,-37,-50,-24,14,49,61,36,-5,-24,-10,0
4,0,-9,-13,-6,-4,-9,2,1,4,-2,-10,-2,5,-4,-4,1
8,3,1,-2,9,2,6,-8,34,16,3,-14,22,20,-5,2,1
102,97,79,58,40,48,65,72,59,40,8,-22,-13,4,-1,1,0
4,-3,6,3,-25,17,7,11,1,2,3,-7,-6,7,0,-4,3
-1,-8,-6,-2,-6,-4,-8,1,5,0,-6,-2,10,-2,-6,-6,2
162,155,137,93,37,-32,-90,-139,-164,-156,-126,-83,-41,-3,18,38,0
-22,2,0,-7,-15,-3,-6,-4,-31,-7,-2,0,-34,-9,0,2,2
-12,-17,5,-2,-37,-8,1,18,-5,-19,-6,-14,-39,6,-12,1,3
-2,5,7,-5,-34,22,7,10,-7,-9,-3,-20,-30,10,-7,-12,3
11,-7,-2,-2,-1,-9,-7,17,4,-15,-9,-8,-4,-6,-11,-6,3
-1,-4,-7,-15,-5,-2,-4,-16,-13,-5,-11,-11,-17,0,-13,-10,2
5,25,3,-28,-1,11,4,-9,0,6,17,-18,1,13,-2,-8,1
3,-6,2,3,5,-7,2,1,7,-2,-2,2,10,-13,10,-1,2
-1,0,-1,-4,-8,3,2,-3,4,-1,-6,2,-3,4,-3,0,2
-6,-2,1,-1,-8,3,-6,4,9,-10,-1,-6,-2,3,-6,-3,2
-9,3,8,-8,-9,10,-6,-2,-9,-3,1,6,-15,0,3,8,3
-5,-6,-8,-9,-13,-9,-8,3,-8,-10,-12,3,-13,-4,-7,-3,3
-12,12,7,6,-1,10,3,1,-9,6,6,4,-10,8,8,1,2
-37,-47,-47,-31,12,62,100,123,116,90,62,40,19,-4,-24,-48,0
2,-8,1,7,0,-3,0,5,4,0,3,1,-6,8,3,2,2
49,45,40,28,34,45,65,90,101,119,113,81,34,1,-15,-13,0
4,5,-6,13,2,-2,4,12,7,-20,-17,4,7,-22,-14,4,3
-16,1,-8,3,-5,-11,-7,3,0,2,0,-6,5,-1,-4,-4,2
2,2,4,-2,4,1,-4,5,-11,1,4,-9,-22,13,-6,-1,3
3,2,5,11,20,-8,16,-8,7,1,4,17,8,4,9,6,2
1,-2,7,-9,-15,9,-1,3,-5,7,-1,-13,-12,0,-8,8,2
3,7,-2,-3,17,-7,-1,-5,0,3,2,5,0,-1,7,3,2
5,0,-6,-9,11,0,-13,-9,2,-10,-1,-4,6,-13,-9,3,3
-6,-2,4,1,-11,4,3,1,5,-5,-3,8,3,2,-5,5,3
-10,-4,2,-8,-13,-2,-6,2,-5,2,1,-10,-14,9,-4,-2,2
1,-3,3,0,-11,10,1,1,-2,0,0,-4,3,-3,-3,-3,2
1,-5,-2,12,4,-4,0,6,6,6,1,-1,14,-3,4,-3,2
1,14,5,-21,1,6,-1,-8,5,14,6,-6,15,17,-4,-8,1
40,31,56,69,66,65,43,30,36,66,80,91,98,61,-10,-52,0
1,-9,0,1,4,-9,-2,-1,-8,-12,0,0,-7,-4,-4,-4,2
2,26,8,14,28,18,9,-5,1,8,0,7,-3,15,10,-5,1
10,6,-2,4,3,16,0,1,13,-12,3,6,6,1,3,0,2
5,10,2,3,-25,21,-2,26,0,6,-6,-8,-7,6,-6,0,3
-1,1,3,6,-5,2,-4,16,-4,-4,0,6,0,0,-3,1,3
17,23,58,82,116,130,110,53,-34,-95,-139,-156,-166,-138,-85,-28,0
20,21,27,37,29,10,-1,-13,-10,-2,-3,-19,-38,-57,-60,-58,0
-103,-125,-102,-64,-23,23,36,16,2,-15,-54,-77,-67,-53,-48,-48,0
12,-3,-7,20,19,-11,11,3,14,14,0,2,19,6,2,4,3
-32,-12,-5,31,6,-26,19,-17,-22,-50,-17,58,14,-55,10,1,3
37,46,34,19,0,-1,20,41,46,37,39,43,53,60,63,51,0
-8,16,16,17,-2,7,12,23,3,12,3,1,13,3,11,-8,3
-9,10,5,10,0,10,3,4,-8,3,6,6,-8,7,7,0,2
3,-7,-2,-13,6,-5,-8,-11,-1,0,-2,-7,-9,3,-3,-1,3
-53,-64,-66,-58,-60,-56,-46,-44,-33,-17,-2,3,3,-12,-42,-75,0
0,-6,1,16,9,-11,10,3,-5,7,-5,5,-12,3,10,2,3
4,-7,5,-2,-18,18,10,-10,-2,-7,30,-39,-11,2,9,-18,1
-58,-79,-90,-85,-63,-23,16,32,40,47,51,53,51,46,25,6,0
-1,4,6,-16,-6,10,-6,-6,-6,12,-4,-11,-8,-4,-2,3,3
4,0,3,3,7,5,-1,-1,-1,8,6,4,6,-1,11,0,3
29,9,-9,-6,27,2,-4,-3,2,5,15,12,27,13,-4,-3,1
30,-43,-110,-163,-158,-122,-63,-12,41,79,91,76,30,-10,-50,-63,0
-1,1,-8,3,1,-1,-4,-2,-2,0,-5,-8,-7,0,-5,-2,3
-9,-21,-24,11,-20,-7,-25,8,7,-16,-44,17,-12,-13,-25,14,1
6,1,9,6,-2,13,24,-14,9,-9,23,-8,6,-1,13,-3,1
7,9,8,3,9,6,9,3,18,4,12,-10,10,14,4,-5,1
-4,-2,-6,-5,-9,2,-1,-8,-6,-3,-1,-1,-13,2,2,-1,2
3,-2,-2,-2,4,-2,-1,-4,-4,4,2,0,5,-4,3,-2,3
-1,9,6,-9,7,0,0,-3,0,11,-2,-11,-1,7,-2,-6,1
-28,-14,-9,10,-22,-16,-8,6,-16,-32,-16,8,-24,-18,-10,-4,3
-107,-34,34,91,131,124,82,24,-10,-17,-8,-14,-53,-100,-123,-85,0
2,-4,-2,-7,-6,5,5,-14,-8,11,5,-23,-23,15,1,-9,1
-5,2,-3,7,8,-9,-4,7,-1,2,-3,7,7,-6,1,4,2
-38,-37,-31,-17,-18,-31,-38,-43,-53,-75,-101,-119,-118,-90,-48,-13,0
57,27,-10,-43,-74,-87,-94,-93,-81,-61,-35,-15,7,18,16,5,0
15,-4,8,-29,6,10,-17,-10,19,24,15,-34,22,3,-7,5,3
14,-2,-10,-4,17,-6,-4,-8,-2,-4,-2,13,20,-2,-13,1,1
-8,-3,3,-5,-19,5,-5,7,2,-13,-2,-2,-8,-4,-1,-3,3
13,8,-5,-7,12,6,-9,-1,6,18,-1,-19,15,-2,-8,-1,1
0,-7,-11,-1,-3,-11,-1,-3,-4,-3,3,2,-5,4,5,-7,3
-139,-135,-150,-158,-159,-180,-208,-209,-197,-184,-135,-74,-30,-20,-40,-98,0
-195,-155,-106,-53,13,69,83,67,33,-8,-43,-74,-77,-70,-47,-24,0
-5,4,0,1,0,3,-3,-1,-17,9,-3,-7,-17,5,-4,-3,2
-5,-6,0,-3,-2,-8,-4,0,7,-8,-3,-2,11,-9,-7,-2,2
0,-1,3,3,1,3,4,-1,-1,1,6,10,5,0,6,5,3
7,1,7,-10,-1,8,-1,-1,-8,8,10,-16,-4,10,-4,-8,1
18,-2,9,-26,6,12,-8,-11,9,-10,2,-14,-2,3,-6,-9,1
6,5,0,-5,2,6,-4,1,-1,4,0,-3,9,4,-9,-3,3
7,-14,-28,-10,29,50,81,98,74,26,-12,-37,-52,-54,-39,-32,0
-86,-78,-78,-68,-51,-41,-30,-21,-21,-34,-48,-65,-84,-93,-94,-96,0
-90,-72,-50,-17,3,25,37,43,31,10,-23,-70,-113,-143,-149,-138,0
-4,8,1,-5,0,4,-11,9,-5,4,6,-8,1,3,-5,-2,1
38,5,6,-1,46,-3,5,-1,54,15,1,1,58,17,-3,-1,2
5,7,8,-12,18,-2,-9,1,20,8,4,-1,25,2,-5,9,1
2,-8,-2,7,5,-9,-3,6,-27,9,3,6,-17,7,-2,3,2
33,0,-8,1,39,-10,-5,1,50,11,-3,5,48,12,-2,6,2
41,68,110,157,196,218,194,143,82,39,7,-10,-39,-67,-89,-83,0
3,-18,-7,-3,-3,-14,-11,3,-9,-4,-16,-2,-1,-17,-20,6,1
-10,-9,-21,12,-23,-9,-6,11,-11,-14,-27,19,-21,-25,-3,16,1
-1,3,7,0,-4,4,5,4,1,1,-2,1,8,-1,-2,-4,2
-6,2,-3,0,-7,-1,-4,5,-2,14,-2,-4,-5,7,5,1,2
-47,-52,-45,-41,-29,-24,-21,-19,-13,-3,-2,4,11,14,11,14,0
-2,11,15,7,-24,30,9,15,-2,5,2,10,-10,10,10,5,3
-6,1,-2,6,-4,-16,1,17,10,21,25,-28,13,30,12,-27,1
7,-1,-6,-7,4,2,-2,-10,-1,1,8,-9,-17,1,2,12,3
-74,-85,-76,-48,-25,-11,3,-4,-33,-82,-122,-148,-170,-152,-147,-140,0
50,20,-31,-71,-74,-79,-81,-46,13,41,42,22,-15,-62,-67,-50,0
-4,7,4,25,9,-10,12,21,-3,7,-3,7,1,-2,10,-2,3
-6,4,2,1,-6,-11,6,12,5,24,27,-33,13,25,6,-21,1
9,14,9,3,-11,17,1,27,12,22,8,-20,1,16,1,5,3
-11,-10,-11,7,-25,-2,-3,4,-11,-2,-5,6,-16,-3,6,0,3
-4,2,-3,6,-3,-1,1,3,-7,15,-1,8,1,13,-1,1,2
-6,-3,5,6,8,-7,5,-3,16,-7,-4,13,18,-4,-1,6,2
-1,-4,-3,11,-2,-5,1,8,3,-5,-3,6,2,-5,4,-1,3
8,-4,-5,-2,13,-8,-6,-2,2,1,1,-4,3,1,2,-5,2
-30,2,-2,-14,-43,6,0,-9,-45,-4,-4,-16,-41,-16,-7,-5,2
-110,-57,-15,12,27,41,53,57,59,49,28,7,-20,-46,-61,-50,0
3,-8,6,0,4,-3,0,-2,9,-3,3,2,6,2,0,3,2
-1,-5,-3,6,-1,-2,-3,2,-7,-10,-13,22,-5,-5,-7,8,1
5,-5,-2,-12,-4,-3,-11,3,-14,6,2,-2,-2,-1,-3,-3,2
12,3,-10,8,12,2,0,-1,7,0,3,9,10,4,2,3,1
12,38,19,-32,1,39,13,-17,3,11,32,-40,-1,21,16,-30,1
-17,3,-2,-20,-12,-16,-6,-2,5,7,6,-19,0,5,-5,-1,1
-7,-2,-3,-6,-2,-8,-6,-3,-9,0,-7,-2,-11,-1,-2,-4,2
2,0,8,-6,2,2,4,-3,1,2,5,-6,5,-6,5,-2,3
23,3,3,7,27,-1,4,6,34,-8,1,7,31,2,-3,4,2
-12,-24,-18,27,-10,-11,-9,3,-11,-20,-37,35,-5,-23,-9,4,1
-4,-3,2,2,-2,1,-3,1,-3,-2,-6,5,8,-9,-4,-2,2
-2,8,30,46,41,18,-26,-52,-63,-64,-60,-48,-32,-22,-14,-2,0
-20,-40,-35,-8,17,31,21,-8,-37,-40,-20,7,36,31,0,-34,0
-3,5,-1,-5,-12,9,6,-6,6,1,-1,-6,-3,4,1,-2,2
3,-11,4,-2,3,2,-4,-8,-4,-7,3,10,12,-16,4,3,2
-2,-3,0,-5,-7,0,2,-5,-5,3,0,-4,-5,-2,-1,2,3
-4,3,6,-13,-20,13,-3,1,-2,-3,2,-5,0,-7,-8,7,2
-56,-60,-100,-122,-123,-129,-135,-119,-101,-83,-61,-47,-74,-109,-135,-173,0
-1,-1,-2,17,18,-18,4,8,-1,5,5,1,-5,10,1,3,3
-8,14,-4,9,2,11,-10,7,-9,9,7,9,5,3,4,2,1
10,7,1,14,8,-8,31,0,10,-1,17,8,9,10,36,-21,1
-43,-44,-43,-31,-28,-31,-45,-52,-53,-45,-28,-11,-1,-1,-7,-19,0
1,-6,0,6,1,-4,0,4,-1,3,10,11,-3,6,15,5,3
5,-3,2,-3,6,-4,-1,0,15,-11,-4,-1,-2,-1,0,2,2
-106,-79,-52,-21,26,74,108,122,116,80,42,2,-39,-86,-125,-137,0
5,3,-8,-8,18,-4,-8,-13,2,-11,-1,-3,5,-9,-9,0,3
-6,-5,-5,11,4,-16,0,7,3,-11,-10,6,-3,-1,-5,-4,3
-4,-2,2,-5,-9,1,-3,3,2,-17,-13,10,-4,-3,-7,-3,3
21,0,6,-1,19,2,1,5,13,24,4,4,30,5,6,4,3
6,1,2,8,5,4,0,8,2,-4,-8,0,4,-8,-5,-1,3
-4,3,-3,-4,1,2,-6,-4,9,-9,-6,-5,13,-8,-8,-7,2
-1,-8,-12,4,13,-16,-3,-12,-1,0,-10,10,-6,6,1,-2,2
3,-3,-6,4,10,-11,-6,4,6,7,-6,1,-7,16,1,-4,2
-5,1,-2,-6,-1,-3,-5,-4,-2,-9,-3,-7,-12,-1,-9,2,2
-132,-128,-108,-83,-68,-52,-62,-76,-100,-114,-122,-120,-105,-90,-88,-99,0
8,8,10,-2,14,-1,7,5,10,9,10,-14,5,4,6,1,1
3,3,2,4,2,7,2,2,6,-4,7,6,3,6,4,2,2
-2,0,-3,-8,-5,2,-3,-8,-4,-1,2,3,-1,-5,5,1,3
-164,-109,-45,17,83,116,112,88,69,68,61,44,-2,-52,-79,-56,0
-6,12,17,-3,1,12,10,-3,-7,26,24,-22,6,15,18,-18,1
9,-9,-8,15,3,2,3,-1,0,2,-2,-8,1,7,-3,-12,1
11,-9,5,-1,12,1,0,-8,17,-2,0,6,9,8,2,1,2
21,3,9,-3,14,6,16,-6,-3,26,14,-9,-6,23,14,-3,1
-16,-19,-5,7,-17,-16,-15,15,5,-15,-20,5,-9,-8,-8,0,1
98,96,85,71,34,-17,-75,-121,-159,-177,-174,-152,-117,-70,-10,40,0
8,-4,2,8,13,-1,6,-4,-2,5,-1,1,-7,8,0,2,3
0,-2,7,11,2,3,7,4,6,-8,8,5,14,-7,0,3,2
12,5,11,-14,-4,10,14,-7,12,4,-1,-22,1,10,-15,-2,1
5,-21,-10,-26,-28,3,-13,-13,3,-2,7,-9,11,-3,-3,-7,3
-3,11,8,3,-8,20,13,-7,-5,0,0,9,-12,6,3,7,2
7,15,3,-27,-15,13,1,-2,3,6,-14,-7,-21,8,-10,10,1
104,82,64,65,89,113,141,158,169,174,189,201,212,197,167,133,0
-1,12,4,-1,1,8,3,1,-1,5,4,3,5,-2,4,4,2
-7,6,-4,-17,-6,0,-10,-5,-13,-5,0,-4,-24,1,4,-3,2
8,12,1,-20,-1,3,4,-5,18,-5,1,-12,9,8,-14,-1,1
-37,-35,-56,-71,-73,-106,-105,-59,-2,36,53,52,29,2,-41,-74,0
50,85,101,84,50,10,-23,-55,-66,-54,-35,-17,7,34,57,71,0
2,22,-7,-15,8,3,-22,13,-10,9,-4,-5,-4,-8,5,-3,1
2,-2,0,-9,-1,-2,-7,2,0,-8,-1,-10,-4,-3,-14,2,3
24,-13,-33,-45,-43,-43,-51,-62,-62,-47,-28,9,59,100,114,101,0
-42,-44,-40,-46,-52,-56,-65,-74,-70,-44,-24,1,17,21,7,-5,0
15,4,4,9,24,-2,3,6,16,2,3,8,19,4,4,2,2
3,-2,5,-2,5,-1,-2,1,9,-3,0,-3,3,-2,2,0,2
10,4,-4,32,15,-1,10,18,14,-17,-4,26,23,-12,7,0,3
13,-13,3,-12,1,-6,-4,0,5,10,-6,-31,-9,7,-18,-2,1
39,20,-8,-27,-18,-10,-7,-14,-28,-36,-31,-14,-11,-25,-43,-63,0
7,4,5,-17,-10,10,6,-6,18,2,-5,-19,14,8,-28,1,1
9,5,-5,-7,18,-2,-3,-12,5,4,2,-5,3,-5,5,3,3
17,17,42,63,84,101,119,130,128,121,85,58,41,30,33,39,0
14,29,29,16,0,-8,9,44,69,66,46,21,1,-22,-24,-24,0
11,9,10,15,31,56,52,43,53,47,12,7,17,20,27,35,0
-7,2,-1,-1,-4,-3,4,-4,1,4,-4,4,7,-2,-2,2,2
14,-60,-114,-137,-135,-120,-54,20,77,101,103,104,67,34,5,-25,0
0,0,-3,-7,-3,2,0,-9,-6,3,-5,2,-3,-7,3,1,3
60,67,46,-4,-76,-130,-142,-112,-56,-16,7,17,22,0,-32,-60,0
-78,-72,-55,-53,-42,-26,-48,-78,-90,-110,-142,-144,-109,-69,-46,-28,0
-28,-35,-35,-26,5,20,27,20,5,6,8,2,-19,-47,-71,-92,0
4,-1,-1,-10,-1,-2,-5,-1,-12,4,1,-7,-7,-1,-3,-4,2
-39,-1,-10,-8,-50,-2,-4,-3,-40,-28,-10,-10,-31,-45,-8,-4,2
-83,-66,-50,-36,-26,-18,-27,-31,-37,-48,-61,-66,-61,-61,-60,-56,0
-46,-39,-31,-20,-8,0,-15,-35,-70,-99,-108,-102,-92,-79,-58,-37,0
-4,0,-1,0,7,-9,-3,0,-15,3,-7,-2,-13,2,-11,2,2
42,30,-5,-52,-94,-130,-145,-137,-103,-61,-23,3,7,14,31,46,0
-4,-13,-6,-19,-14,-11,-20,4,-18,-9,-8,-9,-18,-20,-14,8,1
1,-4,-5,-2,12,-11,0,-10,-1,6,-2,4,-2,12,3,-6,2
48,57,41,-1,-15,-7,1,-13,-11,17,60,102,107,61,4,-30,0
24,-8,16,-9,17,3,12,-9,7,-2,10,-2,15,-8,21,-13,1
5,0,-10,-5,17,-7,-12,-8,1,-5,5,-3,10,-5,-9,1,3
1,-11,3,-9,-3,-6,-1,-5,-2,0,-1,-1,3,-5,-3,1,3
-13,-6,-5,-1,-13,-2,-7,-3,-11,1,0,-8,-13,0,-6,1,2
-13,-9,-11,18,-9,-16,-6,15,6,-15,-21,19,-4,-7,-5,4,1
-3,1,-2,-4,-11,2,-1,3,-8,-1,-4,-11,-24,8,-7,-1,2
11,7,-1,30,17,1,10,19,15,-14,-3,23,23,-11,8,1,3
-2,7,3,-13,9,3,-2,-16,-2,-4,6,-11,2,-8,-4,-3,3
4,4,7,-8,3,6,4,-7,-5,10,2,-11,-1,-2,3,-4,3
6,-5,2,5,4,4,3,-3,8,-9,5,0,15,-7,-8,4,2
-8,-14,-22,16,-8,-10,-10,0,-4,-25,-27,19,-14,-25,-10,13,1
5,-23,-55,-56,-26,-3,-21,-41,-45,-49,-13,28,33,20,13,13,0
33,9,-12,-26,-38,-38,-37,-43,-48,-44,-15,3,24,38,35,24,0
2,7,4,-8,9,4,-2,-7,-4,9,9,-12,-6,12,-5,1,3
25,-41,-93,-111,-95,-66,-45,-35,-44,-35,-14,11,24,26,17,14,0
-14,-38,1,1,11,26,-1,-30,-18,-14,-25,-3,-11,-24,6,26,0
18,-12,2,0,3,-3,5,3,47,-2,-16,-16,18,13,-13,-4,1
-21,4,12,-5,-17,-6,8,4,-16,5,28,-39,-17,5,0,-9,1
27,0,-2,4,27,0,2,0,12,5,8,12,31,13,-6,0,1
28,34,41,32,18,6,5,9,-4,-16,-42,-62,-67,-68,-74,-84,0
-61,-40,-9,7,5,-26,-61,-86,-99,-82,-49,-12,-5,-10,-22,-41,0
2,-3,1,0,7,-6,1,-1,5,-8,3,7,11,-6,-3,5,2
19,-7,-7,-13,6,-1,-9,-3,8,12,3,-6,-1,16,2,-1,1
-6,-1,3,-6,-16,5,-5,6,1,-5,1,-8,-6,-2,-2,-1,3
-2,-6,-1,7,-2,-1,-1,2,-7,-8,-13,21,-6,-3,-5,7,1
16,-9,-13,-38,-21,9,-18,-14,7,9,1,-12,17,4,-8,-7,3
-15,7,-2,-3,-7,-5,1,-2,-17,0,-1,-1,-23,5,-1,1,2
70,87,86,86,91,103,97,64,29,-4,-21,-22,-3,19,43,70,0
-6,6,-3,1,-2,4,-2,-1,-5,-5,1,-2,2,-12,-1,0,2
-3,-8,-9,-2,-15,8,-3,-11,-5,-1,5,-7,-1,-2,-10,4,3
-5,-12,1,3,-4,-6,-12,9,3,-13,-22,5,-16,-8,-14,10,1
-75,-63,-44,-21,2,33,26,-5,-33,-53,-81,-94,-95,-109,-111,-71,0
-217,-250,-250,-213,-144,-55,32,110,170,220,262,274,242,187,125,74,0
-1,0,4,-2,0,3,-1,0,-7,6,1,1,3,2,-4,-1,2
166,150,133,107,83,47,23,4,-8,-4,10,28,47,78,112,135,0
9,5,-9,-28,5,1,-26,-3,-1,22,-12,-33,0,-4,-13,-8,1
-2,-5,-6,26,8,1,1,3,-5,-1,-7,23,3,-1,2,6,1
3,-14,-40,-62,-77,-69,-50,-17,14,41,74,100,109,93,69,33,0
-3,-1,3,-5,-13,4,0,2,1,-3,-8,-2,-11,2,-5,3,2
56,7,-2,17,58,6,7,6,46,11,9,25,63,13,6,7,1
7,-3,1,3,9,-2,-2,2,1,-2,5,0,-2,4,2,0,2
-4,-4,-7,-11,-12,-9,-7,3,-6,-8,-11,1,-10,-3,-7,-4,3
12,5,-11,-7,14,1,-10,-5,9,-2,-18,-5,14,-14,-17,2,1
-10,10,41,77,93,97,63,29,4,-19,-50,-76,-92,-102,-93,-74,0
-1,-4,-8,-16,-3,-3,-9,-14,-13,-8,-14,-12,-18,-1,-18,-9,2
9,-4,2,-17,-15,15,-9,-1,6,5,2,-5,5,1,-4,6,3
-6,11,-1,-1,0,5,-12,9,-6,5,7,-6,1,3,-2,-2,1
-16,5,3,-1,-9,-6,4,2,-12,-4,-2,-3,-18,-3,-3,2,2
-17,-11,-15,-4,-20,-17,-14,4,-3,-14,-27,7,-13,-18,-8,2,1
-1,-10,-8,0,0,-13,6,-12,9,-1,-2,-7,2,0,1,-3,2
-4,16,7,12,-14,19,10,16,-4,8,1,-2,-6,4,-2,7,3
-2,-7,-2,-5,7,-11,-5,-7,1,-4,-5,-1,5,-5,-10,2,2
-34,-26,-44,-77,-83,-60,-38,-29,-40,-76,-111,-100,-70,-59,-49,-35,0
9,12,9,-18,3,8,-2,4,-16,-4,1,5,-9,-14,2,6,1
-59,-34,-13,12,42,74,99,120,120,101,78,55,23,-20,-68,-107,0
-15,-2,32,46,55,43,26,9,-21,-19,-50,-61,-56,-60,-33,-17,0
-6,-1,-2,-6,-13,4,-10,3,-6,3,-4,-11,-9,-6,0,-4,2
13,6,0,2,14,1,6,1,26,-1,4,14,27,-5,12,10,2
-1,-4,-10,8,-1,-3,-2,-1,-3,-4,-1,-3,-6,1,-1,-5,3
-6,4,2,4,-3,1,-2,8,-16,13,8,7,-10,6,13,4,2
35,11,2,2,45,5,6,-5,26,12,-3,1,44,-7,-2,1,3
-2,3,1,8,10,3,4,-7,3,-9,-4,2,10,-14,-2,-3,2
3,-6,1,-9,7,-5,-4,-9,0,2,-1,-4,-10,4,2,1,3
-33,-42,-27,-8,-29,-33,-24,-25,-36,-15,-6,-1,-47,2,-9,-4,3
-1,-1,-3,-2,-4,2,-4,0,-6,1,5,-12,-3,-7,-2,-1,3
-5,2,0,-2,0,1,-4,-2,6,-5,4,5,2,-2,3,7,2
-2,13,10,3,15,5,1,3,4,13,6,-10,5,14,-3,-3,1
-6,-1,-3,-11,0,0,-14,-7,-15,2,-11,-6,-6,-6,-13,-5,2
-14,3,2,5,-23,6,15,-1,-23,-11,16,8,-28,9,20,-12,3
63,14,-2,3,23,53,69,88,88,64,49,35,12,-4,0,-24,0
30,9,3,3,39,-1,5,1,57,19,6,14,62,18,11,5,2
27,19,5,-17,-4,20,47,58,59,56,33,-5,-38,-49,-44,-30,0
7,5,17,6,19,-3,8,11,14,-14,44,-7,12,18,25,-18,1
-6,8,3,10,2,2,3,9,-7,-4,5,7,-23,14,5,5,2
-5,-13,0,5,-9,-5,-5,5,-5,-3,3,9,-2,3,2,1,3
-2,-1,-8,8,0,-5,-3,5,-4,-4,-8,4,-7,-2,-2,-1,3
9,3,4,11,19,-1,11,-1,12,7,3,13,14,7,11,2,2
3,-4,-2,-5,-17,-3,0,13,2,-15,-4,-8,-8,-15,-6,5,3
-5,12,16,-9,-27,25,14,1,-16,10,7,-25,-22,13,-5,-10,3
32,1,-7,24,35,11,10,-5,18,-9,-11,48,18,-5,21,12,1
17,7,4,3,31,-4,4,-2,26,7,2,8,25,18,2,-2,2
-1,-5,6,-9,-7,4,-5,-1,-3,0,1,-2,-3,-6,5,0,3
3,-1,5,6,7,-6,9,2,7,4,0,2,-8,11,8,2,2
-4,-1,-4,0,-7,3,2,-6,-5,-2,1,0,-12,4,4,-1,2
4,5,6,-10,-20,16,-5,15,4,3,1,-9,-1,0,-1,1,2
-53,-56,-43,-39,-30,-25,-24,-20,-22,-24,-39,-55,-69,-69,-71,-67,0
-2,-2,-1,-4,6,-17,-3,4,-4,1,4,-4,0,3,-5,-1,3
3,-7,-3,-12,-7,-1,-10,-1,7,-9,2,-10,-7,-12,2,7,1
81,145,180,170,110,15,-79,-144,-181,-182,-168,-133,-94,-36,21,68,0
-4,0,1,-8,4,-5,-5,-5,-1,-6,-1,-4,6,-14,4,-8,2
1,-2,-2,0,10,-6,-6,-1,-1,5,-6,-3,-15,9,4,-3,2
-4,3,7,8,0,8,12,-6,1,-1,2,1,5,10,-4,-8,1
-3,7,-3,10,4,2,9,-5,-8,27,-3,-12,8,10,-4,-10,1
-10,11,9,16,11,4,14,-3,-2,3,4,12,0,11,6,1,1
9,2,3,0,26,-4,-2,-7,7,-1,2,9,12,-2,4,3,3
2,6,-1,-7,-8,2,5,1,4,1,4,-2,-7,8,8,-2,2
198,150,61,-25,-73,-101,-102,-21,50,85,114,99,57,8,-33,-59,0
0,9,2,-4,9,-1,-1,-1,6,-7,-3,2,-2,4,-6,1,2
3,9,2,4,-15,19,13,1,-1,7,4,-1,-7,7,4,7,3
-23,-5,-1,34,7,-18,18,-2,-16,-45,-16,52,14,-49,8,2,3
-16,-18,-19,-26,-24,-15,2,9,18,23,30,35,47,62,69,75,0
23,73,97,86,46,4,-58,-85,-76,-58,-45,-16,12,5,-18,-50,0
-1,-3,2,-6,2,0,1,-11,-4,-3,6,-3,-5,-2,3,0,3
-114,-125,-132,-104,-72,-96,-140,-157,-153,-118,-70,-26,-16,-24,-30,-61,0
-8,-2,1,-1,-9,-4,1,3,4,-12,1,-2,-6,-3,1,-2,2
16,15,1,-25,21,2,-16,0,19,12,2,-35,5,13,-19,-2,3
-40,-40,-48,-57,-71,-78,-75,-65,-53,-39,-34,-51,-61,-58,-44,-24,0
16,10,1,16,21,-9,8,22,6,16,-2,-1,11,-1,6,3,3
-6,-8,-22,14,-1,-12,-11,2,0,-24,-27,32,4,-26,-7,11,1
2,-14,-5,1,4,-11,6,-16,4,-2,-3,1,-1,-5,3,2,3
6,7,-10,0,25,-4,-10,-8,6,1,5,-9,21,2,-13,-5,3
5,1,-4,-3,-5,9,-3,-3,-1,-6,3,-2,-1,0,-5,0,2
5,5,-9,2,31,-8,-3,-17,10,-13,-13,8,19,-20,-7,0,3
-11,5,-4,-30,-3,-19,-28,10,-7,-12,-15,7,-15,-13,-2,4,1
-120,-120,-81,-29,18,40,54,57,71,97,124,135,114,62,-11,-98,0
-7,8,-3,-2,1,-6,0,2,-8,1,0,1,-9,2,0,1,2
-22,-13,-7,20,-9,-16,-6,9,-6,-9,-19,10,2,-9,-22,6,1
-6,-19,-9,8,7,-14,4,-23,-1,-29,-16,17,8,-24,-3,-11,3
16,-1,-36,-16,-1,26,65,79,118,136,123,80,64,47,15,-4,0
-27,-8,-2,32,7,-22,18,-9,-19,-47,-17,55,14,-52,8,2,3
-8,-14,-8,-4,-12,-20,-3,1,-8,-24,-10,-5,-27,-14,-7,0,3
84,93,87,56,13,-42,-108,-165,-210,-224,-202,-145,-74,-19,29,55,0
25,24,17,-5,-31,-26,-13,4,15,35,52,44,25,2,-8,-3,0
-30,-1,11,10,17,18,-8,-31,-42,-36,5,54,74,51,35,15,0
-4,3,11,41,78,106,131,139,144,137,117,81,35,22,13,11,0
9,12,-4,-15,7,5,-6,-3,4,20,10,-12,-7,15,8,4,3
9,9,15,5,16,6,14,1,-4,20,17,-11,8,9,12,-7,1
4,-2,6,-5,2,-1,1,1,6,6,4,-14,10,-2,-4,-2,3
-7,5,-16,9,-4,-5,1,-1,1,-4,-5,2,-2,-8,-8,10,1
-6,-24,-9,-2,-34,-8,-2,3,-8,-15,-11,-11,-28,2,-16,-4,3
36,2,3,2,44,-6,5,0,55,11,-3,2,56,13,-6,1,2
6,18,4,-1,-4,19,11,2,4,15,5,1,6,15,2,3,2
5,-3,0,-9,-1,0,-10,4,15,-12,-1,-11,12,-7,-8,-5,2
4,-6,2,-4,6,-2,-6,-2,-6,6,4,-3,-1,5,2,-5,2
1,0,7,-5,1,2,4,-4,2,1,4,-3,5,-7,5,0,3
-16,-21,-38,-55,-42,-10,21,32,30,12,0,-4,20,38,40,6,0
112,78,18,-50,-110,-155,-189,-209,-213,-208,-190,-151,-93,-43,11,49,0
9,9,0,-1,11,0,7,-1,24,4,4,6,25,-4,7,10,2
22,2,4,-18,-5,14,-6,6,19,19,2,-3,29,8,-1,-1,3
9,30,44,46,56,79,76,54,9,-42,-100,-135,-144,-141,-140,-127,0
-4,-19,-10,-3,-31,-7,-2,5,-8,-25,-9,-13,-37,-1,-14,-2,3
6,4,0,-6,-1,7,-4,2,-2,4,1,-4,8,2,-8,-3,3
-59,-76,-84,-83,-79,-75,-60,-59,-62,-68,-60,-47,-29,-1,12,5,0
14,-1,-1,-5,1,4,-3,4,13,16,0,-18,14,-7,0,4,1
-91,-84,-74,-89,-123,-156,-166,-152,-121,-102,-97,-79,-54,-26,-6,2,0
-10,13,17,16,-5,7,11,24,1,9,3,-2,8,2,9,-8,3
0,0,-1,-13,0,0,-12,-3,-2,4,6,-17,-6,10,-4,-9,1
-21,-32,-32,-25,-13,-4,-3,-2,4,21,49,85,100,89,63,32,0
3,-4,8,-5,-19,21,10,-11,-3,-4,36,-48,-15,6,11,-21,1
4,-2,4,8,-2,6,13,-3,7,2,-4,-1,1,11,-7,0,1
2,8,-4,3,-7,12,3,2,1,7,-2,4,8,5,-3,0,2
32,10,3,12,36,0,9,11,28,16,-5,-5,42,2,-4,-5,3
12,15,-6,-15,22,6,-9,-13,11,10,6,-13,25,7,-4,-16,3
5,-4,-5,1,-11,-3,-3,15,0,1,2,4,-1,-4,10,3,3
0,-1,5,5,0,6,10,-6,-2,10,1,-5,2,11,1,-11,1
1,-4,-4,-12,11,-10,-12,-8,-5,3,4,-10,-7,0,-5,3,3
-30,-32,-42,-22,-3,-19,-37,-46,-41,-36,-13,8,4,-3,-9,-24,0
61,41,17,-3,-27,-32,-35,-25,-9,9,18,25,32,30,24,19,0
5,3,-1,4,10,-1,1,1,9,-4,-4,9,16,-2,-4,-1,3
-120,-148,-151,-144,-143,-137,-128,-114,-86,-52,-13,16,53,66,53,14,0
90,164,222,246,249,229,205,161,88,-7,-72,-87,-56,-24,-5,35,0
7,-4,-1,1,8,-2,1,-3,1,1,-1,3,5,-6,3,2,2
0,10,6,5,6,5,-2,11,-18,12,3,0,-6,0,1,2,3
41,16,-13,-41,-59,-75,-76,-69,-58,-36,0,40,78,107,113,98,0
1,-4,-6,-4,-9,-8,1,3,-1,6,-3,-5,2,3,-8,-1,2
-6,15,36,55,56,57,53,50,36,22,20,15,19,12,7,-4,0
-2,-7,-4,2,8,-18,-1,1,4,-9,-8,-1,-5,-7,-7,4,2
36,16,-7,-15,33,7,-13,4,8,16,-9,0,15,1,-10,8,1
1,1,-11,-8,1,-9,-16,7,-9,8,-2,7,-4,-2,8,1,1
-16,-10,-24,9,-31,-14,-9,13,-17,-26,-36,26,-31,-25,-10,12,1
-4,0,0,1,7,-7,-2,0,-11,-3,-6,0,-12,0,-11,2,2
-2,-5,-5,6,0,-8,-5,7,5,10,-4,-3,11,1,-2,-2,2
-7,-3,-2,6,-2,-7,5,-2,-7,-5,-8,12,-5,-3,-1,0,3
0,-3,3,-1,8,-4,-4,-1,-3,-1,5,1,-4,1,3,2,2
2,-7,-7,-7,-26,10,-2,-2,-6,-8,0,-6,-15,0,-8,4,3
-3,7,1,-7,-14,12,8,-8,3,0,0,-6,-5,6,0,-3,2
-130,-138,-137,-146,-150,-166,-173,-162,-137,-115,-106,-95,-92,-88,-80,-67,0
-1,-9,6,-12,-6,-6,-4,1,1,2,3,-9,4,-2,-5,-1,3
-1,-4,1,6,7,-9,6,-2,-2,8,-5,4,-10,6,6,3,3
-10,-15,-8,28,25,-19,4,-14,-12,-12,2,43,5,-11,19,8,3
20,-1,5,2,22,-1,1,4,14,20,4,6,29,4,6,5,3
-1,-11,-27,-37,-44,-50,-50,-49,-44,-51,-47,-43,-30,-5,22,32,0
1,7,3,-2,8,-4,3,1,8,-14,2,0,-9,1,5,-1,2
4,-3,-7,8,6,-3,-1,0,-1,3,-11,-3,-4,-9,-2,2,1
0,-3,7,0,-5,6,5,-3,0,-4,-5,22,7,-5,6,4,3
-22,15,5,17,-11,1,1,25,-9,-23,-15,10,-13,-20,-6,1,3
9,21,17,-21,22,8,1,-4,3,23,18,-26,13,6,5,-6,1
6,-2,-1,14,11,-10,13,4,19,14,4,0,19,11,6,2,3
-16,0,19,32,29,23,2,-15,-30,-36,-39,-48,-52,-58,-60,-52,0
2,-4,-2,13,-1,-2,2,10,-1,0,-1,5,1,-4,2,4,3
5,-8,-1,-9,-4,3,-9,-2,3,7,3,-16,5,10,-8,-10,1
-3,-8,-6,1,3,-11,-10,2,-12,4,0,2,-3,-3,0,0,2
-36,-26,-25,-14,-1,14,13,3,-9,-28,-35,-32,-30,-28,-22,-12,0
-11,3,0,-5,-9,-5,-3,3,-19,3,1,-9,-23,-2,3,-3,2
-33,-3,-3,-11,-38,-1,-1,-8,-41,-13,-3,-4,-40,-19,-2,-1,2
14,-18,-22,4,-7,-6,-25,16,-2,-25,-17,20,-21,2,-3,-2,1
-2,-7,-1,7,-6,-1,-1,4,-4,-10,2,9,-1,-1,3,-4,3
1,-7,6,-3,-11,7,0,1,-2,3,-6,-2,-1,-2,-2,-3,2
2,4,-1,0,1,3,2,-1,12,-13,3,4,7,1,2,-4,2
6,1,-1,-11,7,-2,-11,1,1,7,2,-12,6,10,-8,-9,3
187,205,201,193,159,118,75,40,16,-6,-26,-59,-86,-105,-104,-102,0
10,9,16,-7,10,12,17,-11,-6,-10,2,32,-7,0,17,7,1
-10,10,-4,4,-3,3,-1,3,-10,5,1,0,-3,-1,2,-2,2
1,-9,7,-5,7,-12,-2,-1,-7,0,25,-15,2,8,-5,-2,1
5,13,16,-7,-9,22,3,12,5,9,-1,-3,-1,10,-1,3,2
-169,-216,-224,-191,-124,-58,13,70,97,105,97,83,63,49,32,-6,0
-17,21,74,92,79,74,66,35,5,10,16,9,9,15,9,20,0
-6,3,-3,-4,-6,2,-7,0,-13,0,-2,2,-9,-6,0,3,2
-2,-6,8,8,-4,5,6,2,0,-3,7,5,-4,9,3,1,2
-77,-66,-44,-20,-7,-4,-17,-41,-58,-75,-90,-92,-82,-65,-50,-42,0
10,-1,-2,9,18,-3,3,-1,4,5,23,-3,20,13,7,-10,1
-1,1,-10,-4,-14,6,-6,0,4,3,-8,-7,-5,1,-3,0,2
8,12,-6,-17,21,-1,-7,-16,7,7,1,-10,8,-4,1,1,3
-6,10,-2,-1,-4,6,2,-1,-6,1,4,4,-5,-4,9,4,2
9,5,5,-4,-4,14,2,2,10,0,2,-1,4,3,0,4,3
-39,3,2,-8,-49,7,5,-7,-38,-14,-3,-9,-33,-16,-11,-4,2
11,3,-9,-1,17,2,-8,-7,-6,5,0,5,14,-6,-1,-3,1
-2,-4,-1,4,-3,-5,-2,6,-5,12,4,-5,4,2,5,-3,2
75,6,0,15,84,9,6,-3,64,15,3,31,84,13,5,10,1
10,12,10,4,6,21,9,1,7,7,7,6,5,6,8,7,3
9,5,-2,-4,15,2,-1,-9,4,-1,1,2,14,-12,4,0,2
2,-2,-7,-13,-7,-5,-9,2,-1,5,0,-13,-4,5,-6,-4,1
-4,7,0,-5,-7,6,2,-3,-2,-4,-2,3,1,-9,-4,7,2
-2,-8,5,4,-6,1,7,-3,-2,-2,-4,18,5,-3,6,2,3
28,-10,-45,-60,-68,-54,-23,14,61,32,-5,-46,-100,-73,-63,-50,0
4,8,6,-14,17,-2,-10,-1,22,7,1,-4,26,0,-10,10,1
-5,-12,-13,6,-26,-4,-1,7,-10,-6,-8,5,-20,-6,4,2,3
4,9,4,-15,17,-2,-10,-3,25,6,-2,-6,27,0,-13,10,1
2,15,1,-1,-11,19,7,1,16,-5,3,1,37,-25,1,2,2
6,-3,2,3,11,-1,1,-1,4,4,-1,-3,8,-2,1,-2,2
20,1,14,8,24,4,26,-10,2,20,19,-1,-5,25,20,-1,1
-27,-39,-58,-56,-31,-13,-6,-21,-38,-41,-23,16,39,43,41,26,0
21,-46,-101,-141,-145,-137,-111,-75,-33,5,36,82,104,110,92,72,0
23,-5,-2,7,24,-3,1,2,11,8,5,8,27,12,-6,-1,1
-7,-8,-3,-6,-14,-4,-4,-2,-3,2,-3,1,-12,13,2,-5,2
1,-5,-1,-17,-50,24,-3,7,-12,-7,-1,-26,-49,12,-10,1,3
3,-11,-10,-16,6,-11,-4,-24,-1,-11,-9,-12,-9,-5,-15,-4,3
14,0,-4,-6,12,8,-16,0,12,6,-6,-13,16,-3,-10,-3,1
2,-7,-7,1,13,43,69,65,26,5,0,-16,-20,-6,4,5,0
-2,3,7,-16,-5,9,-5,-7,-5,9,-4,-9,-8,-4,1,3,3
21,-3,-6,-17,-20,24,-3,-6,-6,8,-1,-24,-23,12,-11,-1,3
15,1,-1,-9,5,8,-4,-4,17,-7,-3,-10,23,-11,-12,-4,1
6,-3,-2,4,4,-10,12,0,14,9,3,0,12,7,8,-2,3
16,-3,-13,-9,16,-7,-10,-7,0,-2,-1,6,19,-3,-14,1,1
3,6,0,-13,-7,14,-9,-3,-7,3,6,-9,-15,2,3,3,2
36,26,33,48,47,36,37,21,-13,-28,-46,-81,-111,-117,-121,-118,0
40,42,42,-35,17,35,56,-19,35,26,45,-69,13,24,16,-17,1
23,14,5,21,74,-6,-1,-4,24,5,9,23,40,3,11,7,3
1,-1,-2,-8,9,-11,-10,3,-12,0,-2,-10,-10,-13,1,-3,2
-5,-8,7,-8,-1,-5,-4,-4,-10,-6,-3,-1,2,-11,-4,-6,3
6,32,22,34,30,25,9,2,-15,7,36,12,-8,-13,-27,-14,0
13,0,-1,-8,7,7,-3,-6,16,-7,2,-11,17,-9,-7,-3,1
-1,2,-8,2,1,1,-4,-3,-1,2,-4,-11,-7,3,-7,-3,3
-18,-10,-20,-18,1,16,12,19,18,-3,-32,-44,-54,-55,-38,-29,0
-2,2,0,-21,-5,-6,-6,-4,5,-3,-8,-5,-5,1,-5,-2,1
123,97,68,29,-21,-43,-35,-24,-15,28,76,75,46,31,7,-22,0
-1,1,3,1,-2,3,3,-2,-6,1,-1,6,-9,7,-3,5,2
16,14,39,-30,13,10,30,-13,24,26,33,-48,21,17,7,-10,1
1,7,0,-5,8,-1,-3,-1,3,-9,-3,4,-4,3,-6,2,2
11,14,21,31,43,47,41,19,-6,-28,-43,-41,-38,-36,-36,-23,0
-6,16,28,-35,3,4,-1,-4,-16,14,55,-30,-4,27,15,-15,1
2,3,-10,-18,-26,-10,3,21,37,48,51,34,10,-26,-58,-61,0
-2,3,11,27,10,5,20,3,12,3,6,13,33,1,7,-5,3
58,49,33,-52,24,33,42,-12,26,41,45,-64,14,33,22,-22,1
-19,2,-7,2,-6,-12,-6,1,-1,-1,-1,-9,4,-2,-7,-6,2
4,10,2,13,6,9,7,7,11,1,11,5,12,2,14,1,3
-3,-7,0,-2,-2,-6,-7,3,3,0,2,-1,3,7,-7,2,2
-118,-129,-126,-109,-95,-68,-54,-49,-43,-41,-31,-33,-37,-46,-55,-73,0
33,29,15,5,-11,-32,-52,-73,-62,-45,-16,9,15,-5,-22,-5,0
61,59,49,39,28,7,-20,-35,-47,-46,-30,-6,13,27,46,48,0
-9,-2,-7,-14,0,-11,-20,-2,16,-3,-1,-21,14,-8,-15,-1,1
-91,-63,-39,-25,3,43,80,103,86,28,-43,-101,-109,-93,-63,-32,0
10,19,-5,-25,24,2,-10,-17,16,7,-1,-16,22,-2,-9,-5,3
14,26,3,14,24,31,11,-8,-8,11,-2,8,-6,2,4,10,1
6,0,1,-1,-3,11,2,-4,-4,2,1,1,-7,12,-5,-2,2
5,13,-5,22,8,11,16,1,13,8,2,-8,11,6,3,-3,3
0,1,3,5,-4,6,3,4,2,5,3,-2,1,13,-2,-5,1
-25,-23,-25,-12,33,67,69,38,-4,-72,-128,-136,-123,-98,-52,-7,0
-16,6,-15,2,-11,4,-19,3,-11,9,-28,-1,-4,-26,-23,22,1
-4,4,2,-1,-8,-25,-62,-82,-100,-102,-100,-88,-75,-74,-64,-65,0
-2,-1,5,-7,5,0,-3,-7,-7,1,5,-4,5,-4,-7,1,3
48,26,8,9,61,26,12,-7,52,30,13,7,60,34,9,0,1
4,8,6,14,5,7,12,8,4,2,6,9,12,7,4,-2,3
-5,2,-5,-2,-6,-4,-1,1,8,-3,-3,1,4,2,-4,1,2
0,-1,7,-2,-4,5,6,-3,-3,-3,-5,16,5,-2,-4,5,3
-7,5,-2,5,-1,3,-2,1,-6,-3,4,-3,6,-12,-2,0,2
-3,12,-4,2,-6,7,3,3,3,5,-1,5,-1,10,-3,5,2
6,2,-16,-30,-47,-71,-105,-128,-148,-161,-156,-126,-85,-55,-23,-11,0
2,7,-1,-1,13,-3,2,-3,-19,8,6,7,-12,2,9,2,2
9,14,6,-7,21,11,-4,-7,6,6,5,-9,4,13,-7,-3,1
-1,-6,-11,-3,-2,-13,3,-8,6,2,-2,-13,0,2,-4,-4,2
-2,2,-2,3,-2,4,-1,1,-4,-3,1,2,-1,-1,-2,1,2
2,4,-2,20,5,6,8,6,8,-4,3,14,9,-2,13,-1,3
-5,-5,2,-8,-14,3,-5,1,-19,7,4,-8,-10,5,-11,-1,2
-53,-13,-5,-32,-56,-83,-123,-144,-135,-124,-114,-99,-95,-114,-124,-119,0
-2,-4,-8,1,-4,-1,-4,-3,5,-11,-12,-11,-1,-12,-17,2,3
21,-6,-5,17,20,3,1,4,2,11,-7,16,12,3,11,-5,1
12,28,33,-50,7,16,17,-16,-5,27,55,-47,11,31,2,-15,1
-1,3,8,21,27,24,24,35,35,25,13,3,-7,-11,0,10,0
33,5,-17,-10,31,0,-6,-14,24,-15,-8,-11,9,-4,-7,-7,1
-6,5,3,11,2,-3,4,8,0,1,-2,6,2,4,2,-2,3
-7,28,4,0,-15,22,7,11,-25,13,10,9,-34,7,17,16,3
-127,-109,-105,-96,-74,-74,-70,-51,-21,-17,-26,-34,-59,-84,-79,-69,0
2,-9,-2,5,-1,-4,-3,4,4,3,2,-1,-5,8,4,1,2
-7,-2,-1,-13,-51,20,-2,10,-9,-7,-4,-24,-45,9,-6,-2,3
-2,1,2,5,-6,8,0,4,7,5,5,6,5,11,1,6,2
20,14,2,-8,1,23,7,-4,36,-7,4,-1,52,-18,-1,1,2
3,0,8,-13,-5,6,0,-3,-7,8,21,-17,-14,15,9,-5,1
0,-4,-4,-8,2,-3,-10,-6,13,-15,-3,1,14,-12,-5,-1,2
-1,8,4,3,1,5,8,1,6,5,-3,-1,2,13,-5,-3,3
-1,4,-7,5,7,-3,-4,1,-1,1,-2,6,7,-8,3,2,2
3,-12,-8,3,19,-14,-2,-18,8,2,6,13,10,7,7,4,3
-5,8,1,3,1,2,4,-1,-9,-8,-2,1,-10,-11,0,3,2
-3,17,1,13,0,8,15,5,0,3,2,7,11,-5,7,-1,2
-38,-48,-53,-42,-56,-70,-47,-37,-48,-45,-54,-73,-60,-40,-29,-32,0
-5,-3,-4,18,17,-18,3,5,2,1,-2,5,-3,10,0,0,3
-3,-7,-5,3,5,-19,-2,4,5,-8,-8,-3,-5,-6,-6,3,2
-53,-36,-36,-63,-80,-84,-85,-97,-112,-103,-100,-93,-62,-48,-33,-31,0
-41,-32,-14,6,4,-2,9,22,54,91,120,130,113,75,26,-7,0
47,21,16,-32,25,12,16,-2,35,17,35,-52,14,27,13,-19,1
0,2,-9,4,1,1,-2,-3,1,0,1,-10,-6,4,-1,-7,3
15,-3,-32,-53,-61,-64,-56,-40,-19,-3,21,41,41,31,16,0,0
18,38,57,69,71,57,35,6,-5,-25,-46,-69,-75,-70,-54,-30,0
-88,-81,-67,-57,-42,-14,5,18,5,-13,-42,-56,-48,-38,-14,10,0
11,-1,5,-1,11,2,5,-3,9,3,1,2,17,-5,2,2,2
2,-3,-1,3,10,-11,-4,6,16,-18,0,3,-3,-1,3,3,2
-43,-34,-18,-1,15,20,10,0,-43,-79,-116,-118,-103,-59,-18,19,0
4,-7,-5,-11,0,-13,-5,-2,-5,-7,-9,-8,-7,-10,-9,-2,2
5,-4,9,-14,-20,22,5,-10,0,4,23,-43,-16,11,10,-20,1
-21,105,117,85,40,-11,-82,-111,-114,-119,-78,-20,16,34,56,63,0
32,3,4,-1,37,-2,3,0,57,-3,-3,-1,50,-1,3,-1,2
-3,-9,-16,4,-5,-2,-17,0,-3,-4,-2,7,0,-2,7,-8,1
2,-6,5,-5,-5,-2,4,-1,7,-8,2,-7,4,-10,5,-6,2
1,-2,3,6,5,-9,11,1,-1,17,-14,0,4,10,-2,-9,1
1,1,3,-9,0,0,-7,3,2,4,1,-3,6,-3,1,-1,3
-4,14,-1,-11,1,3,-6,2,-1,-11,-5,4,-6,-4,-2,-1,1
-8,3,-1,-7,-10,-6,-2,4,-7,0,1,-19,-14,-5,-3,-5,1
-15,11,-10,3,-11,-8,9,1,-15,-4,0,-8,-17,-11,8,-7,2
-8,6,3,-31,-3,-18,-16,6,-5,-7,-13,10,-10,-9,-2,5,1
-1,10,-2,-9,-6,16,0,-11,5,9,12,-21,-21,33,2,-9,1
6,0,-3,-15,4,0,-15,-1,0,8,3,-16,5,8,-9,-9,3
14,45,60,76,72,47,26,3,-45,-75,-44,-17,13,44,64,50,0
15,-5,-5,1,11,32,70,101,99,49,-31,-64,-52,-25,9,44,0
10,19,-5,-24,24,3,-11,-16,16,6,0,-17,24,-1,-9,-8,3
3,14,-5,-3,8,4,-7,5,4,0,-2,2,4,-3,-2,4,3
6,-17,-13,20,-2,-12,3,8,8,-28,-13,23,16,-28,0,1,3
80,102,119,109,86,51,16,-23,-59,-84,-92,-84,-62,-23,4,34,0
1,1,2,11,-3,2,0,17,1,7,2,1,4,1,-1,7,3
-7,7,-10,4,-12,9,-3,0,-9,-5,4,0,-13,0,2,0,2
-5,-7,-16,6,-5,0,-16,0,-4,-7,-6,13,0,-6,8,-6,1
-51,-35,-22,-14,-6,6,12,27,44,38,11,-15,-21,-11,14,41,0
-3,-22,-10,-13,-15,-4,-3,-26,-8,-18,-4,-1,-10,-9,-3,-8,3
2,-8,-4,-3,-3,-4,-4,-2,-4,-6,0,-9,-14,1,-3,-2,2
21,-4,2,-4,11,15,-4,-7,-3,7,23,2,8,4,15,2,1
-15,16,2,-2,-3,4,-5,5,-11,5,3,-10,-13,9,-3,-6,2
-6,3,2,-2,1,-2,-1,-2,-3,-8,0,-6,-10,0,-8,2,2
-3,28,27,15,1,-3,24,64,102,183,199,164,139,58,35,11,0
18,27,3,3,13,-1,31,7,13,2,30,-17,-5,11,19,2,1
-10,-18,-3,10,2,-19,2,-6,-7,-10,2,20,0,-11,10,4,3
-1,5,-1,4,-2,5,1,3,-1,-5,2,-1,-2,-3,0,-1,2
-13,-11,2,26,82,107,90,47,1,-3,-62,-123,-131,-135,-138,-100,0
-4,2,-4,-6,1,0,-8,-6,10,-12,-5,-2,13,-12,-7,-4,2
-58,-68,-52,-43,-57,-51,-30,-42,-88,-86,-63,-54,-37,10,21,7,0
-10,6,-1,-30,-2,-19,-22,8,-5,-10,-15,9,-13,-11,-2,5,1
3,-3,-2,-6,2,-2,-11,3,0,-4,-5,-4,8,-17,-5,0,2
-20,-16,-11,0,-12,-14,-30,9,4,-17,-16,-11,-19,-12,-9,0,1
10,10,16,5,26,-3,6,13,12,-10,40,-1,17,12,27,-16,1
-1,2,11,12,17,-7,7,7,1,1,6,5,5,9,2,-2,2
-19,6,-1,6,-11,4,2,-2,4,-13,-10,-4,5,-14,-21,7,1
-29,-67,-69,-44,-27,16,48,39,53,91,147,130,129,116,80,53,0
-49,-67,-80,-94,-97,-91,-77,-61,-61,-68,-79,-74,-65,-50,-45,-52,0
6,1,-2,-13,5,-1,-13,0,0,9,3,-14,5,9,-8,-9,3
-3,-6,-8,-3,-17,10,-3,-10,-6,-2,5,-7,-3,-1,-9,4,3
30,-6,-2,3,36,1,-5,-7,19,10,-14,-1,20,1,-2,-3,1
-2,6,1,2,2,3,-2,3,7,-5,-4,-2,8,-10,-1,-1,2
2,15,9,-3,18,8,1,-4,5,8,6,-11,4,16,-9,-3,1
9,14,17,3,27,-2,5,12,10,-9,37,3,18,10,26,-13,1
-1,10,1,6,1,8,7,0,-1,12,3,-2,2,10,-3,4,3
-40,-15,17,35,28,6,-24,-72,-110,-127,-117,-95,-71,-64,-73,-66,0
4,-6,4,-3,-3,1,2,-1,3,-2,3,0,8,-5,2,-2,2
22,7,-26,-41,-29,3,-21,-37,-29,-37,-6,14,-37,-64,-82,-90,0
-17,-7,0,13,14,3,-26,-72,-125,-163,-168,-152,-132,-112,-96,-92,0
14,9,10,-12,18,0,8,-6,11,3,14,2,23,-1,4,5,1
3,-1,2,-12,-5,1,-5,1,1,4,-3,-7,-3,9,-13,2,3
2,-2,8,-6,-8,12,2,-2,-4,-4,3,1,-7,1,5,-3,2
0,19,14,-1,6,-9,31,4,16,0,22,-16,5,4,23,-10,1
66,12,-1,-1,70,6,-3,2,54,32,6,5,75,12,5,5,1
4,-2,-2,-4,4,-1,-3,-4,-4,5,3,-2,6,-4,3,-2,3
0,-6,4,-9,10,-11,-8,-2,-5,1,23,-16,-3,8,3,-5,1
-80,-38,3,27,18,4,-26,-29,12,48,52,45,58,48,16,-8,0
-3,3,-5,8,-10,2,5,6,5,6,-1,1,4,14,-5,-2,2
-4,-2,-8,1,0,-1,-2,-9,1,-13,-4,1,-1,-11,-8,5,3
-95,-55,-4,21,36,55,36,-19,-68,-99,-127,-117,-66,-33,-34,-41,0
12,6,-1,5,19,2,3,-3,-5,6,4,9,-3,8,6,2,2
0,-8,-5,3,2,-10,1,-3,4,-5,-3,1,5,-2,-1,-5,2
1,6,4,9,7,2,-3,14,4,5,3,-5,6,6,1,-6,3
-13,-10,-25,7,-31,-15,-9,13,-15,-25,-36,22,-30,-25,-10,11,1
-3,-5,0,0,-4,-2,-1,-2,2,-1,-1,1,-3,2,0,3,2
-3,6,3,5,-1,4,8,0,4,3,-6,5,2,7,-1,-4,3
14,13,9,7,23,10,8,2,29,8,8,-2,34,6,6,-3,1
2,6,1,-3,-13,14,2,3,12,-6,-5,-9,8,4,-11,-8,3
58,17,3,4,58,12,9,3,53,35,5,-3,67,11,7,4,1
-3,-16,3,-5,-14,-3,-3,-1,-6,-13,-10,4,-12,-12,-1,0,3
-47,-36,-30,-27,-30,-46,-64,-78,-91,-98,-95,-77,-65,-53,-44,-46,0
-3,2,0,0,-1,3,-2,1,-5,-2,-1,2,0,-8,2,1,2
-23,-11,-9,-28,-58,-81,-105,-121,-127,-113,-113,-115,-87,-39,-13,9,0
-5,-4,0,-15,-53,22,-2,8,-10,-7,-2,-26,-49,12,-10,1,3
-88,-33,15,43,53,51,16,-28,-30,-28,-28,-16,2,-5,-22,-10,0
7,1,16,-2,14,11,4,-8,4,23,19,-7,14,20,7,-3,1
6,10,3,-9,4,8,5,-6,-4,4,-6,1,4,-2,-7,1,1
11,14,10,10,-19,25,8,31,4,23,1,-10,7,10,4,-3,3
-8,7,-4,-10,-4,-11,-2,2,0,3,19,-31,-5,2,-3,-3,1
-6,13,-3,4,-6,6,6,1,1,-2,3,3,6,-7,4,1,2
22,2,0,-24,-7,15,-10,2,20,17,2,-4,30,8,-2,-1,3
72,6,0,17,80,9,7,-2,60,13,5,32,80,16,4,10,1
-2,-1,-1,1,2,-3,-2,-1,-3,2,-2,-3,-1,-9,4,-2,3
-9,13,-4,6,2,8,-12,8,-9,7,8,4,4,3,2,0,1
25,31,34,-45,13,21,32,-21,3,32,56,-38,20,36,9,-12,1
-13,-21,-26,-26,-19,-14,0,22,45,49,15,-16,-57,-96,-128,-143,0
31,21,31,-56,16,0,23,-11,30,11,51,-69,-6,21,22,-16,1
2,1,-1,13,-2,2,1,15,3,8,3,4,6,2,3,7,3
-7,2,-4,-4,-25,-58,-85,-93,-94,-89,-81,-77,-76,-75,-67,-63,0
3,-8,-3,-6,2,-4,-9,-4,13,-14,-2,2,14,-10,-5,-1,2
-4,-2,-3,-2,6,-12,-4,0,-14,10,-6,-4,-8,2,-9,1,2
1,-9,2,9,3,-2,10,-7,2,-3,1,7,4,11,-5,-3,2
-3,-4,-3,-6,-6,2,-6,-5,0,-9,-5,1,-1,-8,-2,-3,2
39,53,65,74,79,73,61,50,36,12,-2,-17,-43,-93,-138,-166,0
0,-13,-39,-86,-130,-155,-170,-153,-115,-60,4,75,137,151,140,100,0
5,23,4,10,-1,20,12,11,13,22,12,-17,9,16,1,5,3
22,36,37,33,5,-15,-28,-33,-41,-36,-19,-1,14,9,-10,-33,0
-1,5,-18,5,-5,3,-4,-3,0,-18,-20,18,0,-19,-13,12,1
36,17,1,-16,-27,-36,-25,6,15,16,15,17,5,-5,-25,-34,0
11,5,-5,11,-1,10,2,11,11,3,-2,22,16,2,14,1,3
-7,-15,-21,17,-8,-8,-7,-3,-4,-24,-25,16,-16,-23,-9,11,1
-12,-6,4,22,-33,-3,9,33,-4,-25,-12,-4,-21,-15,-8,-1,3
-2,7,11,-5,-7,13,8,-3,-9,4,5,-3,-6,5,1,-2,2
-3,-8,5,3,-5,-1,7,-3,2,-3,-4,13,7,-4,5,1,3
1,3,-2,-6,-8,3,1,1,6,5,1,-5,-2,6,-3,6,2
4,41,75,88,78,64,66,71,58,36,-5,-39,-50,-41,-29,-24,0
-7,-21,1,-5,-25,-14,-1,8,-1,-21,-6,-5,-35,4,-8,6,3
1,0,6,-8,-1,-3,1,2,-5,8,4,-9,-2,15,-14,-2,1
-11,-2,2,-11,-9,-6,-6,-1,-4,13,5,-15,-1,7,-5,-2,1
1,-2,8,8,-6,6,4,11,4,-1,4,5,2,2,4,4,3
30,31,40,54,51,32,35,25,-4,-41,-56,-69,-65,-31,7,32,0
9,9,16,-1,12,12,20,-11,-6,-11,4,37,-3,-2,20,7,1
16,15,2,-25,19,3,-16,2,20,12,1,-36,4,14,-21,0,3
3,-7,-7,-6,-27,11,-1,1,-6,-6,0,-5,-16,1,-7,4,3
-2,-14,-4,-3,10,-10,-3,-20,-12,-9,-7,10,-6,-8,7,-11,3
4,14,12,4,-7,-31,-27,-11,2,4,3,-6,-14,3,14,18,0
-79,-60,-37,-14,4,21,34,26,7,-24,-52,-83,-104,-113,-117,-106,0
1,3,-13,-10,-1,-9,-18,9,-7,10,-4,4,-5,1,6,1,1
6,3,0,-6,-4,7,-4,4,-3,2,2,-4,6,-1,-6,-2,3
5,-8,1,-19,-8,-1,-5,-8,6,-11,-5,-17,-9,2,-28,9,1
-7,-1,-4,-7,-7,4,-10,-5,-9,-8,-2,-3,-5,-12,1,-5,2
-119,-90,-55,-27,-20,-24,-25,-10,11,19,11,-23,-56,-72,-50,-8,0
20,-8,-12,-24,-3,-1,-17,-4,4,-15,-2,-9,-7,-5,-18,9,1
-3,-8,-3,8,11,-7,3,-13,-4,0,4,15,3,5,8,-1,3
-26,-46,-65,-47,-34,-20,-19,-44,-69,-111,-132,-138,-137,-123,-109,-95,0
5,-5,-10,4,5,0,-9,-2,1,4,-19,-5,-3,-9,-11,4,1
5,15,-5,-9,6,7,-3,-3,2,19,8,-10,-6,15,7,3,3
12,-23,-11,4,4,-14,-13,6,32,-24,-42,2,11,-21,-32,9,1
3,-5,-2,-4,-15,-5,2,11,1,-14,-4,-5,-8,-15,-4,6,3
99,101,86,78,80,83,83,63,36,0,-12,7,32,51,71,87,0
27,8,-12,0,26,11,-5,-9,-3,3,-12,-11,-9,-10,-14,10,1
-102,-69,-42,-16,-9,-21,-55,-94,-110,-107,-91,-74,-50,-35,-26,-11,0
-2,-2,2,0,2,-2,-5,4,-6,7,2,-1,-3,5,0,2,2
-5,3,-5,4,-7,3,-3,4,-4,4,-2,-4,-9,6,-2,0,2
2,-1,5,-8,-2,-2,1,2,-5,8,3,-13,-2,12,-13,-3,1
-5,9,1,7,3,5,4,0,-7,4,-3,1,1,0,-4,-3,2
8,-6,-1,-8,-12,9,-7,3,4,-2,-2,1,11,-10,-5,4,3
45,18,-45,-103,-127,-112,-60,-21,4,5,-3,-11,-11,-8,-10,0,0
8,-15,-5,6,4,-9,-1,1,5,8,-4,-3,4,6,-1,-2,2
7,19,15,-17,20,6,1,-1,4,18,17,-19,15,4,5,-4,1
54,71,93,84,49,32,25,20,28,41,39,34,38,27,17,14,0
-26,-9,6,12,15,63,102,122,124,83,-1,-52,-74,-89,-82,-53,0
3,-6,-1,5,3,-8,0,6,-3,1,1,2,0,5,-1,-3,3
-1,-4,-1,2,4,-4,-4,-1,-2,-7,-2,2,-6,-5,4,-2,2
-5,-9,-10,2,-10,-1,-12,1,6,-19,-23,3,-8,-6,-23,4,1
9,-1,9,0,1,11,15,-10,4,18,5,-23,7,4,-12,6,1
4,1,2,2,5,5,-2,0,-2,6,3,2,5,-3,8,-1,3
8,3,-2,-2,-22,16,6,8,-1,8,1,-6,-10,10,-1,3,3
-10,9,-3,5,-6,5,-1,2,-7,3,1,-5,-3,-2,1,-3,2
31,34,32,39,34,27,22,8,-35,-53,-32,1,38,78,96,66,0
-16,-9,-12,-8,-1,-8,-31,-67,-102,-116,-105,-76,-58,-50,-43,-43,0
-1,6,6,0,-3,9,4,1,1,2,8,5,2,5,1,9,2
2,-7,3,2,3,0,5,-8,-2,-13,-4,21,2,-7,5,2,3
72,60,67,69,55,46,30,23,31,40,51,54,65,69,60,50,0
-10,-40,-46,-35,-21,-22,-22,-11,7,30,46,51,35,13,-2,-19,0
5,-3,-29,-40,-21,10,34,27,12,-3,1,12,9,-28,-93,-135,0
-2,2,7,-3,8,-7,2,1,-5,4,-2,-2,-20,13,2,-1,2
18,-10,3,-2,-6,20,3,-9,7,-2,4,-6,-3,13,13,-20,1
-4,8,-2,1,-3,3,1,2,5,4,-1,1,5,7,-3,0,2
-15,-21,-3,-19,-50,5,-18,5,-10,-9,-5,-39,-48,13,-21,-7,3
13,8,2,1,18,1,3,3,17,-3,3,0,8,3,3,3,2
-6,-10,-12,-5,-8,-7,-15,-2,-3,-8,-5,-10,-10,7,-14,-9,1
-28,-14,-19,-25,-26,-18,-18,-6,10,8,10,3,-4,-10,-13,-15,0
-2,10,-11,9,6,2,1,-2,0,0,-1,6,12,-13,2,4,2
17,-12,14,-4,16,-3,11,-9,7,-2,11,-5,14,1,13,-16,1
-34,-16,27,68,98,93,62,-4,-74,-127,-154,-152,-128,-93,-59,-26,0
-58,-105,-140,-144,-128,-75,-8,58,92,109,102,113,137,126,87,24,0
-3,-6,2,-1,-4,8,-4,-10,-14,0,4,13,-2,-3,11,-3,3
13,21,14,-37,11,-4,5,-2,12,16,31,-45,10,1,16,-14,1
-2,-2,-12,-10,-2,-4,-15,-6,-2,-11,-4,-16,3,-18,-12,-5,2
-3,-5,4,11,-2,-3,6,6,-3,-3,1,9,12,-9,-6,7,2
7,10,8,-2,13,5,-1,7,-14,7,8,-1,-14,11,1,2,3
10,16,7,-11,24,6,-5,-3,14,19,-3,-7,17,4,1,1,3
19,13,0,-11,23,4,5,-11,35,20,2,-7,26,21,4,-2,1
36,34,31,30,14,4,-13,-29,-29,0,46,71,71,52,43,42,0
-9,-5,3,-5,-16,3,-3,2,-16,5,1,-8,-9,2,-12,0,2
-2,3,-3,2,4,-1,1,-5,-5,-2,4,11,5,-4,11,-3,1
-2,-1,5,-1,-36,15,5,17,-8,-7,-3,-23,-33,16,-13,-10,3
4,-7,1,5,17,-11,4,-8,7,-4,3,3,8,7,-2,-6,2
52,31,5,-24,-40,-38,-9,19,43,51,38,25,30,57,79,88,0
-3,-10,-12,-4,-4,-12,-16,4,-12,-8,-23,9,-3,-19,-19,7,1
-10,-2,-27,26,2,-18,-11,14,5,-19,-40,45,8,-23,-15,20,1
10,39,7,-52,-7,30,-17,-2,-10,16,10,-28,-15,14,-3,-9,1
0,-1,-1,3,8,-10,-3,7,6,-1,-5,3,16,-3,-1,-9,3
-1,8,4,-7,-6,6,5,-1,7,-1,4,-10,12,0,-4,-8,1
-1,-15,-11,4,0,-5,-17,-2,2,-12,0,-4,-1,5,-5,-13,1
-4,10,5,-11,-6,3,4,1,-4,-5,-1,-7,-2,-12,-5,2,2
-44,22,31,21,-3,-37,-58,-73,-76,-68,-64,-58,-55,-56,-56,-46,0
-18,-5,14,1,-17,-7,11,6,-12,16,2,-18,-15,1,5,-3,1
1,4,3,9,6,0,-3,13,6,3,2,-5,7,6,0,-6,3
-9,1,-8,6,2,-5,-8,1,1,-1,-9,0,4,-4,1,-10,1
-1,2,-8,5,-9,6,1,-1,-1,-3,-7,-1,-7,-3,-1,-2,2
-39,-44,-41,-54,-61,-62,-54,-49,-50,-53,-64,-69,-63,-46,-28,-21,0
6,2,-4,8,9,3,2,-2,8,8,4,-2,12,2,3,2,1
12,15,2,7,9,13,8,6,5,13,-8,-10,-1,0,-14,14,1
20,9,27,-6,21,17,21,-7,22,6,12,3,27,10,8,-2,1
3,0,2,4,14,-4,1,-3,4,8,-3,2,7,8,-2,-3,2
-12,-10,3,16,-40,-2,7,32,-4,-25,-13,-10,-27,-12,-10,-3,3
-8,-9,-23,10,-24,-9,-9,11,-9,-14,-29,16,-21,-24,-5,13,1
5,3,15,34,42,47,45,33,18,1,-19,-41,-43,-43,-45,-51,0
-148,-147,-135,-113,-87,-59,-40,-31,-25,-25,-36,-61,-78,-88,-86,-80,0
-41,-13,-7,23,9,-22,19,-44,-33,-37,-10,59,1,-30,18,-9,3
-93,-104,-101,-97,-96,-90,-84,-63,-34,-5,6,13,14,-4,-34,-72,0
33,5,11,-15,18,8,7,1,17,4,31,-18,4,26,17,-13,1
-6,5,-27,11,-14,1,-25,20,-10,-20,-12,-1,-20,-16,-22,15,1
12,14,14,9,31,5,10,2,22,8,0,5,37,-7,3,2,3
15,-4,-8,-4,10,-5,-11,7,21,-2,-11,-1,9,6,-10,3,1
17,5,-11,5,25,0,-2,-7,-8,-3,-3,29,7,-12,6,14,3
-2,8,1,4,-15,8,4,15,10,6,-3,-4,-2,5,-1,6,3
1,-4,-6,-11,-9,2,1,-14,-6,8,2,-25,-23,15,-2,-12,1
-4,4,-5,6,-13,5,3,7,4,7,0,2,2,14,-5,2,2
-1,5,-8,5,6,-2,-4,0,-1,1,-2,6,7,-9,3,2,2
-10,3,-2,5,-19,6,8,0,23,-9,-6,5,18,-8,-2,5,2
-2,-9,2,-7,-7,1,-7,-3,-1,0,1,-10,-4,5,-8,-2,3
29,22,-12,-50,-56,-66,-87,-85,-83,-52,-20,10,22,21,-6,-33,0
-2,11,7,3,-5,10,9,4,6,11,13,-8,3,16,8,-4,1
-17,1,1,2,-20,5,5,-3,-26,-6,-4,-6,-38,0,-6,1,2
-4,-9,-5,5,-3,-8,-4,3,-1,-12,-1,5,0,-6,3,-6,3
120,50,-15,-64,-105,-111,-73,-7,49,110,128,96,65,33,-2,-24,0
-1,6,-2,-10,-3,4,-2,-5,0,5,4,-13,1,4,-8,-2,3
5,12,8,-40,1,0,-12,-5,7,16,7,-34,4,8,-8,-8,1
-20,-4,6,0,-16,-6,-1,5,-20,9,-3,-13,-17,-4,-3,-4,2
4,-4,-5,1,6,-2,-5,-3,-4,-7,5,4,1,-5,2,0,2
3,11,0,17,3,21,23,-16,-3,15,-8,10,6,11,-2,-1,1
17,-3,-10,22,22,-13,12,5,12,12,-5,4,18,2,0,3,3
15,33,22,-4,-8,5,34,45,35,-2,-36,-48,-57,-56,-84,-112,0
-92,-90,-94,-67,-53,-53,-33,11,0,-33,-66,-104,-123,-96,-55,-56,0
-5,42,71,84,72,47,16,-13,-54,-96,-135,-159,-166,-154,-120,-87,0
5,-1,8,-1,5,5,7,-7,0,-7,-1,15,3,-4,8,1,3
5,-2,0,-1,8,-6,-2,2,0,5,1,-4,4,8,-5,-7,3
1,-16,-10,18,5,-9,-6,4,0,-5,-29,21,1,-7,-18,11,1
64,32,3,8,74,26,5,2,52,23,15,16,73,21,10,1,1
-2,-1,4,-1,-8,9,4,-6,-3,-2,2,4,-6,3,2,2,2
4,-3,-6,-13,0,-4,-11,-3,-3,-2,-3,-6,-5,4,-8,-4,1
3,21,-5,-14,6,5,-21,16,-7,9,-5,-7,-3,-9,2,1,1
-56,-32,12,93,157,164,146,124,67,1,-25,-38,-57,-48,-22,-36,0
9,12,2,-3,31,-1,-3,-7,14,32,5,-11,31,8,5,-5,3
-4,11,14,2,1,13,11,-2,1,2,14,7,3,6,13,2,1
2,0,3,-10,6,-4,0,-6,1,-2,2,2,7,-7,-1,5,3
-2,3,2,1,0,3,-1,1,1,-7,0,4,8,-10,1,-1,2
-4,-6,8,-4,-15,0,8,1,5,10,2,-38,-12,3,-3,-8,1
2,-3,-2,-11,8,-12,-3,-7,5,8,-6,-9,13,-1,-7,-6,2
-1,1,-2,-5,-5,4,-2,-4,-5,-4,-4,-1,-10,-2,-4,1,2
1,1,-6,0,-10,8,-5,2,-11,-2,-3,-5,-7,-7,-8,1,2
-108,-100,-91,-94,-108,-110,-104,-92,-75,-62,-54,-57,-39,-21,-19,-30,0
1,-4,-1,13,13,-13,1,8,18,-17,-2,10,-2,3,2,7,2
-2,1,-5,-2,-6,7,-6,-2,12,8,3,-5,4,13,2,-2,2
9,-27,-37,-22,3,5,-2,-17,-35,-37,-27,-2,15,34,50,68,0
-22,-11,5,12,-22,-7,1,10,-23,7,26,-30,-19,9,1,-11,1
-138,-101,-68,-37,-17,0,19,36,59,86,105,116,106,75,18,-40,0
2,-2,-3,2,10,-9,-4,3,3,8,-7,0,-2,8,0,-1,2
-84,-85,-82,-83,-79,-60,-49,-37,-32,-35,-48,-77,-102,-133,-137,-119,0
5,-3,3,11,0,7,12,-2,8,2,-2,2,2,12,-5,-1,1
-7,2,0,1,-4,-2,6,-4,1,4,-4,5,7,0,-3,2,2
60,58,52,34,0,-36,-81,-113,-124,-111,-84,-66,-38,-12,13,43,0
89,30,6,1,87,30,4,5,68,26,-7,10,90,-4,4,7,1
10,-16,-15,-22,-28,7,-12,-10,-10,-3,-11,2,-25,3,-2,2,3
2,4,0,3,-3,5,7,0,6,-4,-5,-1,10,-3,-7,-4,1
-78,-51,-8,11,-1,-11,-21,-52,-66,-51,-48,-66,-55,-44,-53,-50,0
18,3,-6,-36,-66,-41,-26,-19,-33,-57,-63,-35,2,37,69,59,0
35,-12,-32,-36,-44,-12,6,41,58,58,106,139,157,148,131,86,0
-13,6,-9,-5,-13,-4,-7,2,-17,-10,-2,-4,-20,-5,-10,3,2
5,1,6,-9,5,4,2,-7,-2,4,3,-8,-1,-5,5,-3,3
8,-6,-3,-18,-43,24,-4,5,-12,-5,1,-26,-47,12,-9,2,3
23,9,-2,-31,-29,-34,-52,-43,-44,-48,-31,2,13,11,23,32,0
-18,11,5,-6,-10,3,-2,2,-6,-2,5,8,-8,10,0,4,2
0,1,-6,5,4,-3,-13,12,6,0,15,-16,-1,9,6,-9,1
-3,0,5,-13,-9,2,0,-4,-5,-9,-12,8,-7,-11,-2,1,1
8,13,10,-1,16,6,0,9,-16,10,10,2,-11,10,4,4,3
-4,-9,-8,2,4,-7,-4,-12,-2,-4,2,7,2,2,3,-3,3
10,11,11,1,18,2,8,3,11,8,20,-20,6,6,6,1,1
-10,-13,-7,15,21,22,28,50,79,97,106,104,95,79,56,39,0
-3,-13,-2,-1,-8,-4,-7,0,-2,-1,-1,2,0,3,-4,-1,3
137,142,110,50,-25,-94,-154,-192,-202,-185,-148,-97,-39,-7,23,41,0
2,-17,-11,1,18,-20,-2,-20,4,-5,4,11,-1,4,5,6,3
-5,1,-5,-1,-6,-4,-2,1,6,-2,-4,1,4,0,-4,2,2
8,4,-5,-3,17,-2,-1,-11,5,2,1,-3,3,-6,4,4,3
23,1,2,8,34,-5,1,5,56,-5,0,16,43,10,5,9,2
0,-4,-10,7,7,-11,-7,5,-1,-1,-7,5,-5,9,-4,-4,2
-3,33,8,-4,-17,25,8,17,-25,20,8,-1,-35,11,9,18,3
-5,-1,13,4,6,3,6,-4,-1,-4,11,-9,2,1,2,-8,1
10,43,10,-55,-7,34,-13,-6,-9,17,17,-36,-14,19,0,-15,1
33,28,31,28,25,17,22,17,31,64,87,75,55,43,34,42,0
-2,-3,7,7,-6,7,1,6,-1,8,0,7,4,7,3,0,3
-26,-19,-15,-19,-17,-9,-7,4,11,12,6,8,9,16,20,18,0
3,0,-1,13,-1,2,2,13,2,8,2,4,4,2,4,6,3
1,6,4,-11,5,-2,-4,0,5,11,-18,-3,-2,4,-17,10,1
-4,10,-2,2,-7,7,4,2,3,8,-2,5,3,10,-2,4,2
8,2,-5,5,7,6,-10,7,-8,0,9,12,11,3,2,-4,1
7,6,2,0,7,4,-4,7,5,-3,-10,0,6,-7,-6,-1,3
33,23,-5,-21,37,11,-11,-6,10,14,-8,-2,17,-1,-7,7,1
-11,-22,-5,-12,-56,3,-11,15,-4,-23,-10,-37,-56,10,-22,-7,3
2,2,-2,6,16,-7,3,-4,8,-3,-4,6,19,-1,-8,-3,3
-8,-9,-25,37,7,-17,-6,11,-10,-8,-41,48,1,-17,-11,17,1
-4,28,12,-6,3,15,14,-2,11,8,2,-5,10,-4,4,5,1
-6,4,3,-2,-8,7,3,-4,4,-2,1,-1,-5,4,3,-1,2
-12,-1,-6,-13,-24,3,-7,-3,15,6,1,-30,-4,12,-9,-7,1
-7,-17,-7,-7,-7,-13,-1,-17,-3,-6,-3,-25,-13,-6,-17,-1,3
32,39,51,44,22,7,10,26,43,49,48,42,44,55,76,79,0
13,-8,-10,7,9,-5,-4,2,-4,8,8,5,21,-3,-7,5,1
18,4,2,8,22,1,3,7,16,6,3,4,17,8,2,1,2
7,-5,0,2,9,-3,0,-2,-3,-4,1,9,6,-9,3,4,2
-5,-4,-14,2,-7,-3,-16,5,3,-8,-16,13,-13,-5,4,6,1
-2,9,3,-11,12,4,-1,-16,-2,-7,7,-5,0,-6,0,-2,3
10,8,11,-7,13,2,9,-3,19,10,11,-44,9,3,-5,-10,1
-15,-14,-13,-14,-20,-13,-10,-7,-2,-3,9,16,30,30,35,35,0
1,-12,-6,-6,1,-7,-5,-11,-3,-9,-7,-12,-7,-13,-9,-3,2
30,0,-2,14,23,8,4,8,21,14,6,22,31,15,11,5,1
-5,5,-9,0,6,-3,-14,4,3,2,-12,-5,9,2,-14,-9,1
-13,-1,6,1,-16,-1,11,-2,-10,1,6,-7,-18,12,3,-7,2
-5,-17,-40,-57,-81,-85,-73,-50,-21,14,41,50,57,66,67,56,0
14,10,9,7,-4,11,6,27,3,22,1,-8,10,9,8,-8,3
-8,3,-2,-7,2,2,-6,-11,-15,10,-13,-11,-2,-10,-12,-6,2
2,-1,-6,-1,6,-10,0,-3,-1,-3,1,-3,5,-2,-3,-6,2
-1,-10,-13,0,-5,-12,-2,-5,-6,-4,-3,6,-5,3,2,-6,3
-1,-4,-1,-3,17,-16,-2,-7,-1,-5,1,0,-1,-3,0,-1,2
-5,6,12,15,-22,22,16,12,-8,10,10,12,-16,15,18,7,3
0,4,3,-6,-5,-8,8,6,-1,-5,-8,20,5,16,-4,-12,1
5,12,14,-7,-11,21,1,13,5,8,0,-5,-3,9,-1,3,2
-12,1,-3,-17,-25,5,-8,-3,9,9,9,-33,-5,13,-6,-8,1
7,-1,1,3,13,1,-6,1,16,-10,-1,10,20,-9,-4,7,2
-2,-8,-4,-7,6,-17,-14,3,-5,-4,-1,-6,-4,-12,0,0,2
61,43,2,-37,-73,-98,-120,-109,-87,-67,-50,-45,-32,-33,-24,-16,0
-2,-8,5,3,12,-18,-2,7,-2,4,4,-8,1,3,-2,-4,2
2,2,3,2,6,-2,8,-4,2,-7,-1,4,1,-3,0,-1,3
-91,-132,-146,-144,-136,-117,-83,-20,44,104,126,114,84,38,-22,-100,0
-130,-118,-81,-20,44,84,92,80,51,43,48,52,45,20,-10,-44,0
-17,14,0,-2,-5,1,-5,6,-14,7,2,-8,-16,9,-3,-3,2
7,16,-4,6,31,2,1,-8,10,18,5,9,32,-2,18,-5,3
1,-4,2,-3,-8,3,1,0,3,-1,-1,-2,5,3,-4,-5,2
16,9,2,-10,32,-1,-6,-7,16,35,4,-16,30,10,3,-3,3
18,-1,4,-7,12,3,1,-1,-4,22,10,-14,-4,16,4,-3,1
-3,1,-3,-7,-13,1,-3,3,-10,1,-6,-12,-24,8,-8,-2,2
-1,16,3,-1,5,8,5,-1,-8,10,5,-2,-8,6,6,1,2
-1,-12,-48,16,-8,-11,-30,5,13,-7,-40,11,1,-6,-11,-6,1
-3,2,7,-2,-1,-5,9,-1,-6,3,-1,-2,-7,7,-10,4,1
4,-4,3,-2,1,-2,1,0,-3,4,-1,-1,4,-6,1,-1,2
9,-3,3,1,11,-4,5,-2,-2,-3,5,6,3,-9,7,4,2
-9,-7,-23,36,7,-18,-4,12,-9,-8,-40,49,1,-17,-9,18,1
9,-6,3,14,21,-7,9,-4,-1,-4,4,20,0,10,4,5,2
0,3,-6,2,5,-4,-12,10,2,-1,13,-15,-4,5,4,-6,1
2,0,0,6,1,-5,1,11,10,-4,3,11,17,6,4,-7,3
27,12,-16,-33,-7,3,9,15,15,-9,-37,-56,-51,-42,-40,-31,0
-8,-17,-1,13,-11,-4,9,-6,10,-15,-32,20,-5,-24,-6,18,1
-1,-4,9,0,-7,5,1,4,4,-4,3,-3,1,-1,2,-1,3
10,-2,-3,5,13,-2,-3,0,16,-7,-2,12,20,-9,3,6,2
-8,-2,-1,8,4,-13,5,1,4,-7,-1,5,13,-7,-5,0,2
1,17,16,13,26,3,13,6,20,11,2,7,39,-3,7,-1,3
-2,-9,-3,1,2,-12,-5,2,-1,-3,0,-5,3,-7,-11,6,2
23,33,30,23,41,61,83,90,77,25,-26,-47,-56,-52,-35,-17,0
-3,-13,-2,1,-7,-5,-6,1,-3,0,0,4,1,3,-4,1,3
10,-12,4,-11,-4,1,-13,6,2,-9,-5,13,-5,-1,10,-3,1
0,2,-4,1,-1,-3,-2,5,4,0,-1,-2,4,-2,5,-6,3
17,-8,7,46,66,42,-15,-51,-57,-44,8,51,82,123,140,137,0
3,-23,-10,-23,-29,2,-12,-13,4,-5,7,-8,9,-4,0,-7,3
20,31,49,62,57,45,23,9,-30,-56,-77,-79,-72,-55,-40,-22,0
-5,-2,-2,-11,-5,-7,-3,-6,-4,-4,-4,-13,-1,-14,-13,2,3
1,-2,-7,3,-2,-5,-1,4,0,0,-4,2,-4,3,-2,1,3
-2,7,3,-1,-4,8,2,1,8,-6,4,-2,9,-1,-3,-2,2
-5,-1,2,-6,-9,3,-2,-2,-1,0,0,-6,-6,0,1,-2,2
4,-4,-8,-11,-1,-4,-12,-3,-4,-5,-5,0,-4,1,-10,-2,1
-52,-94,-128,-151,-165,-163,-149,-133,-107,-66,-24,13,31,30,4,-20,0
-1,6,1,9,6,8,5,-5,3,22,1,-12,7,8,5,-5,1
78,16,4,10,76,22,7,3,55,28,14,7,65,26,9,5,1
2,17,6,9,11,4,7,13,14,10,1,2,20,-2,5,4,3
2,-6,5,2,-6,1,1,6,7,0,5,-2,-3,11,6,-4,2
-88,-88,-81,-69,-47,-47,-70,-65,-35,-27,-36,-38,-63,-72,-55,-52,0
0,0,6,-5,-3,2,5,-3,-5,-1,-6,9,2,1,-8,4,3
-7,3,-3,-4,-5,3,-7,0,-19,4,-2,3,-11,-6,2,2,2
10,19,0,-1,11,18,-4,4,23,30,17,-21,14,33,21,-21,1
-1,9,12,1,-8,19,7,4,-2,0,-4,14,6,-2,3,2,2
-7,15,9,-27,-2,-6,-5,4,-2,6,10,-3,-10,18,16,-12,1
15,-7,1,16,21,2,1,2,10,-4,-24,36,22,-4,-8,8,1
-5,14,-1,13,22,1,19,-20,-2,4,-11,35,32,9,6,-20,3
-60,-83,-112,-140,-133,-122,-109,-92,-69,-46,-23,13,12,-23,-63,-93,0
7,3,3,-10,12,-1,-2,-6,35,8,-5,-12,25,11,-16,6,1
-12,1,1,-14,-11,-10,-3,0,-32,6,5,-9,-36,5,2,-2,2
4,-13,-2,-5,-3,-11,-3,-1,1,-8,-5,-7,-5,-7,-5,-2,2
2,-6,8,-14,-9,7,2,-10,-7,-11,-5,12,-6,-5,-1,2,1
-16,-23,-24,17,-23,-9,-22,8,4,-17,-46,22,-12,-14,-26,15,1
91,138,163,176,167,147,104,61,2,-52,-109,-145,-162,-135,-75,-14,0
-7,9,-5,2,-4,2,-2,3,-9,5,0,2,0,2,-2,-2,2
-4,-12,-26,-42,-37,-40,-43,-48,-68,-94,-120,-128,-128,-102,-73,-45,0
3,-8,-5,-8,1,-5,-5,-10,-1,-10,-6,-11,-4,-14,-9,-1,2
14,10,4,-13,21,-3,3,-7,41,13,-1,-6,31,19,2,-5,1
12,-10,0,-11,3,-5,-10,2,6,-4,-5,-8,7,-4,-17,2,1
-12,-6,-5,23,9,-18,4,4,3,-7,-5,10,-7,6,4,-2,3
-4,-6,8,-28,-17,9,-15,-7,-10,8,15,-7,-27,18,9,6,3
22,1,1,-10,11,15,-5,-8,-5,7,21,4,9,5,13,2,1
-2,23,38,38,36,29,29,33,44,58,66,68,65,52,39,39,0
0,0,7,-6,10,0,4,-13,2,1,0,8,7,-7,2,7,3
-4,-4,7,-3,12,-8,0,-8,-8,-2,-1,0,-10,-4,-1,5,2
-4,8,20,31,30,6,-5,22,0,-29,-23,-24,-36,-20,10,47,0
40,25,-5,-16,31,17,-4,0,31,12,19,-31,32,22,-10,-12,1
0,-11,-2,3,-8,0,-1,-1,1,-2,-7,-1,4,-12,0,-2,2
-6,-7,-6,-4,-4,-8,-2,-10,-6,-13,-7,-2,-2,-18,-8,-1,3
7,-12,-7,1,11,-18,-10,4,-2,-2,1,6,6,-6,-2,4,2
7,-2,0,6,3,9,3,-4,-6,12,5,6,-5,10,7,4,2
-4,-6,-1,1,-8,-1,-1,-1,2,1,-7,14,3,7,-4,3,3
-9,3,0,-4,-7,4,-4,-2,-15,3,-1,-8,-14,-4,-2,0,2
-34,-42,-56,-65,-57,-13,29,64,73,31,-29,-89,-115,-139,-161,-144,0
-2,3,8,15,0,4,7,13,1,12,6,16,2,19,12,3,3
11,-16,-12,-33,-26,6,-16,-15,3,5,3,-11,14,0,-7,-7,3
-42,-22,-3,3,2,-17,-44,-50,-44,-28,-3,18,19,12,2,-23,0
-41,-41,-9,20,47,75,89,85,86,72,35,-7,-7,11,11,9,0
7,2,-12,-10,-4,-3,-9,4,2,5,-1,-5,1,3,1,-4,1
40,28,-13,-48,-35,-25,-37,-42,-30,-35,-16,20,34,8,-33,-61,0
-7,11,14,-11,-25,21,12,-1,-17,10,8,-19,-17,11,-2,-10,3
-101,-96,-95,-94,-28,9,68,114,100,40,2,6,-37,-41,-60,-88,0
-69,-36,0,40,55,71,53,44,21,-3,-21,-31,-17,-27,-28,-44,0
2,-9,9,-25,-14,11,-12,-7,-5,6,19,-8,-25,16,14,6,3
-13,-3,-9,7,0,-22,-7,13,10,9,11,-6,18,23,18,-36,1
1,0,6,-3,1,2,4,-4,3,-1,2,1,5,-7,5,2,3
14,-5,-11,6,11,-6,-2,2,3,5,6,5,19,-4,-3,6,1
3,13,7,9,7,-12,37,0,8,-1,23,2,5,7,40,-20,1
-17,-7,-11,14,-11,-12,7,-4,-1,-13,-32,11,3,-24,-31,17,1
-23,-25,-20,-1,-21,-20,-6,-21,-19,-17,-9,20,-18,-20,7,5,3
14,34,50,55,43,27,6,-25,-65,-97,-111,-108,-91,-62,-28,-6,0
0,10,23,-6,-2,19,21,-11,8,1,12,-2,6,9,5,0,1
-5,2,4,-3,2,-4,3,-3,-22,7,0,-3,-12,-3,0,-2,2
6,5,-7,2,13,2,-2,-9,12,-4,-11,6,3,-3,1,2,3
8,-2,-6,-8,5,-8,-2,-3,23,12,-4,-12,-4,28,7,-14,1
6,5,0,-2,6,4,-2,1,3,2,-2,2,12,4,-8,-3,3
90,57,20,-3,-11,-28,-58,-83,-97,-126,-171,-213,-254,-272,-258,-207,0
25,6,14,-12,38,1,-6,1,16,-5,3,10,27,-12,-3,12,1
5,6,2,-9,4,7,-7,-1,-3,3,-2,-1,5,0,-9,1,1
-3,-5,6,-12,-12,5,-7,1,-6,-3,-1,-6,-10,-7,2,-1,3
-22,-36,-47,-48,-39,-33,-28,-17,-10,-15,-24,-27,-29,-24,-4,6,0
-1,-1,3,-3,1,0,-3,0,-6,5,1,-1,4,0,-3,-2,2
9,6,10,-8,-1,8,15,-6,10,5,-4,-17,3,9,-16,-1,1
6,7,1,-9,18,-4,-8,-2,-2,29,0,8,14,19,10,-7,3
-85,-104,-96,-77,-52,-24,6,34,53,86,104,121,118,73,9,-48,0
-75,-26,3,17,27,49,51,34,-15,-73,-136,-180,-206,-200,-173,-134,0
1,1,1,13,-3,2,0,17,2,8,2,2,7,1,0,7,3
4,-5,-12,-3,20,57,82,107,110,87,48,9,-35,-72,-104,-107,0
64,42,7,0,20,42,40,12,-19,-55,-69,-60,-22,29,66,64,0
0,-1,-1,5,1,-6,-4,11,3,-18,-10,5,2,-13,-7,-1,3
1,-5,-8,3,-5,2,-2,-4,8,-5,-2,2,4,11,-5,-5,1
5,13,1,5,30,1,2,-11,12,4,8,21,31,-5,24,-4,3
3,4,-7,13,2,-3,4,9,5,-21,-18,8,8,-24,-15,5,3
-5,4,0,11,4,1,10,-6,2,-6,8,7,6,1,9,-6,1
15,1,2,16,57,-8,-6,-9,9,3,13,29,32,3,18,2,3
-19,2,-6,2,-4,-12,-4,0,-1,-3,-2,-8,5,-3,-8,-7,2
9,14,14,-10,19,7,3,-2,-1,14,22,-10,10,12,7,-3,1
1,5,-1,2,1,5,-2,2,4,-8,2,1,1,-3,1,0,2
30,1,-43,-87,-83,-61,-31,25,93,110,76,19,-53,-96,-98,-73,0
-2,2,6,-4,8,-6,1,-1,-4,4,-1,-4,-20,12,4,-2,2
37,40,56,71,66,22,-16,-56,-79,-61,-34,-32,-51,-46,-43,-51,0
-2,2,-3,-7,-11,8,-1,-7,8,-2,-4,-5,7,2,-10,-1,2
-1,5,-7,-5,-5,1,-6,1,-2,-6,-4,-1,-2,-13,3,-2,2
-4,-5,-3,1,-4,-4,-5,2,0,1,-3,0,4,-7,2,-1,2
-7,-1,-1,-14,-18,3,-5,-3,8,5,-4,-11,9,-1,-6,-4,2
-2,1,-2,-4,-11,8,3,-6,7,0,-3,-3,7,5,-10,0,2
5,-2,-1,10,4,-1,0,10,4,0,2,12,13,-4,1,8,2
2,6,0,2,5,-1,1,5,2,2,-4,-11,2,-4,-10,1,3
-5,4,4,-17,-1,-7,-2,-5,-2,1,2,-15,3,-7,-11,1,3
-2,2,-5,-5,-10,-1,-1,2,-14,4,-2,-12,-3,-13,-5,-2,2
201,175,127,54,-16,-71,-96,-94,-57,2,37,48,38,36,47,71,0
0,1,0,-6,3,-8,-1,0,3,2,-6,-3,3,4,-6,-4,2
15,10,20,-13,15,10,14,-8,22,13,4,-35,13,9,-5,-12,1
-5,-8,-35,20,-10,-16,-14,11,-11,-8,-30,19,-9,-19,-12,11,1
-68,-34,2,37,55,52,51,56,61,46,19,-30,-78,-108,-108,-89,0
6,-4,7,-3,-10,16,4,-2,0,3,3,-3,-5,11,3,-6,2
3,1,-6,-3,7,-8,-1,-4,1,-2,1,-5,4,1,-4,-5,2
-35,-15,10,35,54,72,64,42,12,-14,-27,-28,-25,-37,-39,-25,0
31,2,19,-21,35,0,-4,-2,25,3,3,-7,31,-8,3,-1,1
1,-5,-4,-9,-8,-2,-9,2,3,5,-6,-5,2,7,-12,1,3
4,7,-4,7,5,4,2,1,-6,3,4,3,-8,12,0,0,2
-38,-15,23,53,62,57,34,10,-22,-52,-82,-102,-96,-81,-57,-28,0
-54,-101,-144,-150,-87,-52,-20,35,66,57,18,-20,-75,-61,-56,-77,0
-80,-60,-32,-6,18,53,75,85,86,70,51,19,-16,-50,-79,-84,0
2,-3,-6,-8,5,-11,-10,1,5,-7,-4,-12,4,-13,-3,-5,2
3,-1,3,14,11,-2,6,4,13,10,2,6,30,-3,3,1,2
-9,4,-1,7,-5,0,2,3,-6,-6,1,-4,-3,1,-9,-4,1
7,5,15,-4,16,11,4,-7,2,21,21,-7,13,20,7,-3,1
-2,10,12,-7,-7,17,8,-5,-9,4,5,-3,-6,3,2,-1,2
16,29,34,-49,9,18,22,-18,-2,28,56,-45,16,33,3,-14,1
62,90,102,81,64,16,-38,-79,-89,-72,-55,-29,-23,-7,19,76,0
1,-6,3,-9,-5,1,-8,1,4,-11,0,-3,-2,-7,-1,-1,2
-51,-46,-47,-54,-60,-60,-59,-63,-66,-55,-52,-39,-27,-29,-35,-38,0
-164,-154,-143,-139,-151,-163,-169,-164,-154,-141,-115,-94,-83,-83,-98,-108,0
-11,3,-3,5,-20,7,7,-1,20,-8,-5,11,17,-10,3,8,2
-12,7,-7,-8,-6,-7,-10,3,-5,-5,-5,-3,-18,2,-6,3,2
3,14,5,9,-30,26,3,33,4,12,-3,-10,-2,13,-8,1,3
1,-1,-3,-7,13,-11,-7,-5,0,-1,9,1,-2,0,7,3,3
3,-9,2,1,-15,13,7,-9,0,-12,22,-27,-9,-2,8,-15,1
-8,-3,4,2,9,-7,3,-9,-7,-8,-1,9,-5,-10,6,1,2
8,-3,5,-6,-10,16,2,-4,1,3,2,-6,-5,10,3,-7,2
-3,-7,-4,-10,-6,-3,-8,-7,-7,-7,-6,-6,-12,-8,-5,-1,2
7,20,11,4,8,23,4,8,5,8,7,-4,5,12,-2,1,3
6,9,16,-4,22,0,2,2,21,12,7,6,28,5,6,7,1
-15,11,3,10,-5,8,0,6,-14,5,-21,3,-4,-9,-16,1,1
-3,2,-2,0,4,-7,-1,2,2,6,-2,3,15,2,-7,0,2
-7,9,-6,2,-4,2,-2,3,-8,4,1,1,1,2,-3,-2,2
-3,7,-3,-5,-6,-1,4,-2,1,-1,7,10,-7,16,7,2,2
2,1,4,5,-5,9,5,1,-1,5,3,3,4,5,-2,3,3
39,57,68,57,46,58,64,51,25,-6,-24,-40,-33,-18,-27,-20,0
-228,-206,-156,-93,-29,29,68,101,117,97,36,-42,-96,-132,-147,-153,0
6,9,2,4,-14,20,13,2,-2,12,4,-1,-7,12,2,8,3
-1,1,-4,4,-1,-4,-1,6,5,-1,-1,1,5,-2,7,-6,3
1,7,21,-2,12,4,12,-1,7,-1,33,-11,4,20,9,-4,1
-90,-77,-96,-87,-48,-22,-24,-29,-23,-9,5,-26,-43,-74,-90,-82,0
-18,7,0,13,-10,7,8,-2,2,-13,-7,3,4,-12,-17,9,1
-8,-4,3,-4,-20,5,-5,7,2,-13,-4,0,-7,-4,-1,-4,3
11,19,-12,-20,11,-3,-11,1,3,-6,-2,1,0,-11,-1,8,1
66,84,98,119,148,156,152,136,113,91,70,50,24,2,2,7,0
-4,-16,4,-8,-17,-2,-4,0,-7,-13,-9,1,-14,-12,-1,-1,3
-20,-2,7,-2,-17,-3,0,4,-21,9,-2,-12,-14,-1,-7,-3,2
53,72,86,88,57,0,-49,-91,-116,-125,-125,-127,-120,-105,-84,-55,0
-63,-66,-50,-20,4,8,-8,-47,-72,-76,-64,-46,-19,8,24,35,0
-14,-23,-23,-11,-2,-11,-22,-37,-47,-41,-21,8,29,51,51,39,0
40,48,50,39,27,18,4,8,15,29,27,19,-1,-13,-12,0,0
-82,-88,-84,-70,-39,-35,-50,-72,-71,-72,-74,-53,-40,-39,-47,-49,0
6,23,10,3,-11,24,6,24,9,33,13,-23,5,21,-2,7,3
57,14,3,1,53,17,2,2,43,17,-4,8,55,2,5,3,1
3,0,3,-5,-17,17,3,-2,0,0,0,-3,-3,3,8,-10,2
1,0,2,-3,0,1,-2,0,-8,5,-3,-4,-9,1,1,-3,2
-2,7,7,7,-7,-10,29,7,18,-1,-18,21,14,-4,17,-8,1
6,-11,-7,0,-3,38,61,75,43,-3,-69,-129,-197,-191,-157,-155,0
-41,-43,-35,-33,-35,-25,-11,6,7,3,-28,-53,-35,-17,-5,7,0
-4,4,0,6,-2,2,5,1,-2,5,3,0,8,-3,3,-2,2
17,-4,-14,-13,-1,7,-6,-27,-36,-33,-26,-13,-4,-9,-13,-36,0
-1,-2,1,1,-3,1,-1,2,5,-9,-16,7,-3,-16,4,2,1
3,-4,-4,-3,7,-9,-4,-3,3,-6,-9,7,-1,-4,-3,2,2
3,-2,0,-3,9,-11,-6,5,18,-17,1,-2,-3,2,1,0,2
-4,-3,-4,4,-8,1,-4,3,-10,5,5,-6,-5,1,-4,1,2
-1,-6,0,-4,7,-6,2,-13,0,-7,2,-3,0,-6,-2,1,3
3,1,3,-2,11,-1,5,-11,6,2,-4,-7,12,-4,-9,-2,3
0,-2,3,3,2,3,-1,1,1,8,2,6,15,3,-2,1,2
1,24,35,-29,2,-4,35,-3,13,23,31,-33,14,7,31,-17,1
-7,5,-2,6,-1,3,-1,1,-5,1,4,-6,8,-10,-2,-1,2
-6,18,14,18,3,6,13,23,5,13,3,2,17,4,11,-8,3
-7,4,7,-8,5,-4,-1,-5,-6,1,4,-3,8,-6,-4,-2,1
-2,-9,-10,2,-5,-1,-1,-14,-5,-3,5,-4,1,-3,-7,1,3
3,-1,-2,2,9,-9,2,1,6,-11,-2,3,7,-9,-5,3,2
19,-11,5,6,23,14,-7,-11,7,-3,-19,5,10,-10,-17,6,1
13,0,-4,-3,15,-7,0,0,2,7,2,3,4,2,4,4,2
8,-8,2,-5,3,-3,-3,2,-2,2,-6,-8,4,-11,-3,-4,2
22,37,42,-57,17,18,27,-17,18,18,49,-69,1,13,14,-12,1
10,8,-6,-22,13,-1,-17,-6,20,10,0,-31,15,6,-14,-8,3
-1,-9,1,2,8,-2,-8,-6,-7,-3,8,-1,-9,4,-1,2,2
-7,-9,-9,10,-5,-9,-1,2,-3,-12,-3,8,0,-6,1,-5,3
7,-23,-34,21,5,-9,-40,14,4,-9,-49,16,15,-23,-40,10,1
10,-1,10,7,28,-2,5,-6,9,13,7,10,10,11,12,5,3
13,1,2,-7,12,11,-13,-2,16,2,2,-15,13,2,-7,-5,1
2,-5,-9,-1,-7,2,-3,-4,10,-4,-2,-1,3,14,-6,-7,1
58,35,16,2,-6,-18,-28,-28,-37,-36,-31,-27,-25,-35,-44,-50,0
40,35,29,22,12,-6,-7,4,26,49,68,84,77,75,49,-6,0
-83,-93,-86,-76,-67,-60,-53,-53,-67,-82,-97,-108,-108,-94,-77,-64,0
3,-6,3,10,22,-8,5,-9,0,4,6,17,10,5,9,3,3
-1,-5,1,-2,-15,9,2,-4,-2,-4,-4,-4,-8,-2,6,-9,2
6,0,9,8,11,1,8,4,4,0,-2,9,11,-7,0,6,2
-64,-69,-60,-51,-34,-7,10,34,86,106,85,58,25,19,28,26,0
12,8,-7,-34,-66,-89,-88,-80,-53,-16,9,24,26,29,21,21,0
5,-6,-7,-10,-2,24,37,21,2,10,14,5,1,9,-3,-2,0
1,-9,-4,12,-9,-2,1,10,-9,-4,6,8,-21,8,12,3,3
1,-5,1,19,11,-12,8,8,-1,3,0,4,-12,6,7,4,3
-3,5,-1,6,-2,0,9,-1,4,7,2,6,11,2,3,2,2
2,-7,3,-9,-6,1,-8,1,4,-10,0,-4,-2,-6,-2,-1,2
-6,0,0,5,-11,5,2,2,8,0,-1,5,-8,10,9,1,2
-11,-15,-9,-17,-45,-86,-119,-137,-131,-102,-75,-53,-43,-40,-52,-67,0
-5,-1,-11,-6,-6,-2,-5,-12,-9,-3,-6,-7,-6,-10,-7,-2,3
-2,7,-2,5,-4,6,4,2,-2,-3,-2,6,3,-8,-5,8,2
-21,-12,-2,7,-29,1,6,-5,-12,2,-8,-16,-23,13,-15,-10,3
-30,10,23,9,-31,-62,-101,-122,-102,-71,-49,-22,9,7,-15,-13,0
50,49,42,57,68,78,84,82,76,67,61,57,56,63,66,72,0
9,27,-11,7,3,9,15,4,4,-7,-7,11,-3,-6,1,8,1
-1,-9,-1,5,-7,-2,-3,5,-3,-8,2,9,1,-1,6,-6,3
-1,-5,2,-4,-13,4,-1,3,0,-3,-3,-6,-1,-5,-1,-5,2
-39,-30,-24,-14,-11,-24,-28,-36,-38,-31,-15,-1,11,12,3,-13,0
-71,-42,0,-17,-56,-65,-33,24,63,95,103,111,90,28,18,8,0
-6,4,-2,-3,2,-8,-1,-1,3,-1,-3,-1,12,-3,-8,-3,2
-8,2,-9,4,4,-5,-12,2,1,1,-10,-2,6,-2,-4,-11,1
-7,6,-5,-7,-11,4,0,-6,-4,-4,-4,-1,-14,3,-4,3,2
8,-11,-5,4,0,-13,-5,14,4,-10,-8,-4,-1,0,-11,-6,3
4,4,11,-16,2,10,2,-10,-3,0,7,-17,-2,1,-5,-7,1
-7,-2,3,-5,-18,5,-5,6,2,-10,-1,-5,-7,-3,-1,-2,3
-5,-10,-36,23,-8,-14,-19,14,-20,-8,-32,28,-12,-23,-12,14,1
-6,-3,2,2,-10,2,2,1,5,-4,-4,11,3,4,-4,5,3
-7,-2,-4,-5,-7,2,-11,-3,-11,-8,-2,-2,-5,-13,1,-6,2
12,3,8,-3,-1,12,9,-1,19,9,3,-20,14,-6,-1,3,1
8,-8,5,-24,-13,15,-13,-8,-6,7,12,-12,-27,17,5,5,3
-81,-91,-101,-109,-120,-123,-113,-91,-75,-52,-46,-52,-62,-72,-81,-93,0
3,-7,-5,3,4,-4,-5,0,-3,-8,4,3,2,-7,1,0,2
-12,-6,-12,21,-8,-13,-2,13,5,-15,-21,21,-4,-8,-4,6,1
-48,-28,-7,6,15,5,-16,-21,-16,6,22,29,21,4,0,-5,0
-175,-93,-14,64,113,160,172,164,138,78,23,-21,-49,-64,-53,-24,0
24,6,4,6,28,3,6,4,29,-8,3,7,26,5,-4,4,2
3,23,30,-48,4,9,7,-11,-13,22,54,-45,1,28,5,-16,1
-13,15,-11,-14,-14,11,-21,1,-16,10,-21,-3,-13,-21,-17,21,1
-5,7,-3,1,6,-8,0,0,-11,1,4,6,-7,6,-4,4,2
-210,-200,-181,-161,-141,-113,-77,-53,-26,-5,11,2,-27,-71,-129,-161,0
1,1,-2,-8,-1,1,-5,-3,6,-13,-8,-1,2,-9,-6,-3,2
-126,-75,-15,53,137,181,151,91,33,-37,-85,-108,-112,-99,-58,-8,0
4,1,0,1,1,0,0,6,-7,9,-2,-7,3,-2,-4,-3,2
80,75,43,-22,-79,-134,-168,-166,-144,-107,-59,0,51,98,118,87,0
-13,-12,-1,2,-19,-13,2,7,-21,11,16,-23,-17,7,-3,-4,1
134,147,126,68,2,-43,-65,-74,-69,-54,-44,-44,-39,-22,-12,-6,0
-7,7,0,2,0,0,3,-1,-9,-6,-1,2,-9,-8,0,4,2
1,-6,0,9,7,10,-15,2,3,6,-9,1,9,1,-10,1,1
-2,-1,6,2,-10,7,7,1,2,-10,-5,1,-10,-8,-3,9,2
-7,-8,-15,6,-6,-6,-18,6,-18,-15,-11,7,-10,-17,-7,-4,1
-5,-3,-1,-4,-6,-1,-5,-1,1,-5,-3,-3,-2,-2,-3,-4,2
-3,-10,-14,-4,-5,-6,-18,-2,-2,-6,-5,-9,-9,10,-11,-11,1
6,3,6,7,25,2,-4,-1,-3,-3,-12,17,17,-5,-21,8,1
134,86,10,-68,-136,-159,-158,-122,-73,-26,3,11,19,11,-8,-25,0
-57,11,52,67,55,52,39,4,-51,-114,-156,-191,-212,-228,-229,-204,0
13,-3,0,-8,-5,15,-1,-7,4,1,6,-6,3,5,2,-3,3
-4,4,0,4,-1,2,4,1,-5,-9,-4,-1,-8,-9,-2,-1,2
95,111,95,61,22,-11,-14,-13,-21,-33,-46,-46,-20,31,73,82,0
1,-17,-5,-4,-1,-17,-1,-6,-3,-19,-7,14,-26,-3,3,11,3
10,13,4,-21,8,6,2,-9,10,20,9,-8,21,21,0,-10,1
-7,-14,-2,-5,-2,-7,-4,-14,-3,-2,-8,1,-1,-7,-7,3,3
6,-3,-9,-14,1,-2,-5,-14,0,-5,1,-11,-18,-6,-1,9,3
2,4,4,1,-2,7,11,-7,6,10,26,-29,14,14,-3,-11,1
-100,-109,-71,-34,-27,-56,-93,-134,-149,-152,-160,-176,-172,-138,-106,-76,0
-36,-35,-24,-4,-29,-32,-21,-18,-29,-16,-9,0,-36,-1,-11,-6,3
-4,4,-4,-1,-6,-2,0,2,9,-1,-3,1,5,5,-4,1,2
-70,-86,-93,-81,-53,-21,-2,6,-1,5,24,44,40,22,-11,-47,0
-3,1,-6,-6,2,5,-14,-6,5,11,-8,-6,-6,12,-5,1,1
-91,-44,-55,-74,-85,-80,-76,-81,-100,-121,-143,-156,-140,-116,-89,-69,0
27,-12,14,-9,14,5,12,-10,8,-1,9,-3,13,-4,18,-14,1
-4,3,-1,-4,-8,5,0,-4,8,-3,-3,-4,3,-3,0,-1,2
76,65,37,1,-21,-30,-19,0,9,13,11,16,-3,-20,-31,-21,0
-3,-10,-2,9,1,-11,1,3,4,6,-1,-3,19,-4,-5,-5,2
4,0,-18,-20,-5,7,16,18,21,30,33,26,-9,-31,-38,-29,0
55,83,102,99,102,101,121,151,162,149,123,107,80,54,33,22,0
4,-5,-4,-8,4,-4,-8,-5,-6,-12,-12,1,-7,-16,-12,5,2
-9,3,-3,0,-4,-4,0,0,-3,-5,-2,2,-6,-2,-3,4,2
-3,3,-29,8,-11,-2,-30,21,-8,-16,-12,-4,-15,-16,-21,13,1
13,-1,1,-6,-6,16,0,-4,5,3,6,-6,4,6,1,-2,3
-1,-3,-2,-5,2,-7,-5,0,-2,-6,1,-6,-5,-7,-1,1,2
-13,-7,3,-1,11,22,32,30,28,22,17,22,32,46,42,32,0
-8,14,7,-27,-5,-6,-8,4,0,5,7,-6,-9,12,13,-10,1
6,16,-1,5,30,2,1,-7,11,22,5,2,31,3,11,-5,3
-1,2,5,-6,7,1,-2,-7,-6,3,7,-5,7,-3,-7,2,3
-10,10,-16,-15,-14,10,-29,4,0,6,-21,-6,-6,-7,-20,11,1
48,48,47,34,13,-11,-23,-25,-35,-34,-38,-43,-59,-59,-47,-47,0
5,16,8,2,1,21,4,5,7,5,1,-8,9,8,-7,-4,3
-25,-18,-23,-30,-34,-27,-33,-39,-57,-84,-110,-125,-115,-88,-43,-2,0
46,7,-4,11,51,5,4,0,40,21,2,19,48,22,7,5,1
18,10,3,-12,30,1,-8,-5,17,29,3,-14,21,12,2,0,3
-160,-163,-143,-111,-72,-32,-14,-6,-2,-3,-4,-5,-1,-17,-41,-67,0
5,0,1,-1,5,0,-1,1,-2,7,4,-5,6,-5,3,-1,3
10,-7,-10,-24,19,-18,-13,-19,-4,-10,-13,-18,-10,-11,-21,-2,3
-9,1,-2,-18,-23,7,-8,-3,7,9,12,-32,-6,13,-3,-7,1
-3,-7,5,2,-4,-1,6,-3,3,-2,-3,11,7,-4,3,2,3
-31,-1,19,55,98,132,148,110,42,-34,-93,-132,-134,-146,-143,-111,0
-32,-27,-32,-15,-19,0,19,19,20,13,-30,-71,-72,-42,-6,19,0
-23,-21,-10,-3,-14,-32,-38,-41,-80,-16,23,31,33,33,41,36,0
-1,-2,3,17,-7,1,12,11,-1,-3,-2,18,2,2,5,3,3
-6,4,-9,2,5,-4,-14,3,2,2,-11,-4,7,0,-9,-10,1
-54,-15,25,64,92,89,52,15,-22,-43,-53,-66,-77,-75,-62,-48,0
5,1,-5,-9,11,1,-12,-9,2,-12,-1,-3,6,-14,-8,2,3
17,-1,13,10,25,3,22,-9,2,15,17,1,-2,19,18,1,1
41,36,32,35,34,2,-19,-8,-25,-52,-62,-30,32,61,76,83,0
3,-1,3,-6,-9,5,5,-1,0,-3,4,2,-8,11,-2,2,2
-4,-9,-16,-38,-51,-57,-56,-49,-26,-3,2,-6,-18,-36,-55,-59,0
-6,6,12,-3,0,6,3,2,-3,12,1,-8,3,-2,-3,4,3
-7,0,-1,-2,-5,3,-7,0,0,1,2,0,6,-9,5,0,2
-22,-25,-20,0,-19,-21,-5,-22,-18,-17,-9,23,-14,-21,9,5,3
-93,-104,-90,-105,-120,-107,-100,-101,-76,-44,-58,-67,-72,-102,-135,-155,0
-109,-119,-117,-85,-28,32,86,129,144,114,54,-14,-71,-123,-143,-154,0
11,-1,0,-23,-8,4,-4,-4,12,-3,10,-27,-10,10,-1,-6,1
-77,-76,-96,-110,-106,-88,-77,-73,-67,-91,-129,-159,-157,-143,-115,-90,0
-1,2,-1,-8,-6,4,-5,-1,-19,5,1,-2,-12,-2,2,-4,2
-2,-7,-4,5,9,-5,3,-15,-1,-16,-2,6,-9,-9,3,3,2
-36,-57,-71,-69,-47,-16,2,22,26,4,-14,-31,-51,-68,-64,-60,0
-62,-27,-5,-6,-20,-23,-23,-46,-46,-56,-43,-29,-17,2,15,-9,0
-23,-19,-4,10,22,23,28,23,20,20,24,23,19,19,11,6,0
6,11,5,4,-11,10,2,24,14,13,5,-15,-1,11,4,3,3
0,-5,-7,-9,-8,-5,-1,-6,-14,6,-5,-4,-12,-2,1,-3,2
-2,-21,-38,-46,-45,-47,-43,-23,12,30,36,17,-5,-25,-29,-17,0
100,77,58,54,37,16,0,4,9,11,4,-11,-14,-4,14,22,0
-9,7,7,8,11,-1,3,-1,-7,7,-6,-1,-4,9,3,-14,1
-173,-186,-192,-188,-166,-120,-68,-10,40,67,65,44,17,-19,-57,-97,0
60,38,23,-50,32,25,21,-7,29,32,42,-51,16,36,22,-22,1
-3,-5,-7,24,8,1,-4,4,-4,3,-7,18,4,2,0,3,1
3,-22,-18,-21,-32,3,-14,-14,-13,-4,-10,1,-29,4,-2,1,3
-89,-74,-50,-37,-24,-7,-24,-40,-56,-56,-58,-54,-54,-62,-79,-83,0
4,-2,7,-4,-4,2,-3,10,5,-3,4,-1,4,-1,3,0,3
7,-3,-11,-4,25,53,53,37,17,6,15,15,4,-14,-24,-24,0
-10,-16,-4,10,3,-19,2,-6,-6,-10,3,22,1,-9,12,5,3
50,54,50,41,53,54,42,14,-20,-55,-86,-90,-85,-68,-41,-10,0
-42,-46,-61,-58,-34,-28,-10,19,62,71,63,40,17,-40,-75,-99,0
18,16,9,7,28,13,8,1,33,11,8,1,40,6,8,-2,1
73,72,61,40,16,12,-18,-45,-51,-47,-46,-41,-32,-33,-60,-83,0
8,13,-3,-15,-4,12,4,-9,2,-4,2,-3,-7,-1,7,-1,1
6,11,6,-9,-4,21,4,-7,1,4,-4,-13,-7,-1,-3,-3,3
-1,0,-4,13,3,2,3,1,4,-5,-6,5,6,-6,1,-2,3
2,-8,5,-5,2,3,-2,-9,1,-6,4,5,16,-15,3,0,2
1,0,-7,-26,-34,-35,-39,-47,-63,-82,-95,-100,-97,-99,-94,-77,0
15,-16,-21,1,-9,-5,-26,18,-1,-22,-17,18,-20,4,-5,-1,1
-1,-1,-4,10,1,2,1,0,4,-5,-8,0,5,-9,-5,-1,3
12,6,5,-13,10,13,-5,-7,1,13,12,-2,8,18,9,-11,1
9,26,8,17,30,22,14,-6,3,7,6,13,-5,16,16,1,1
-6,-1,-3,3,-3,-7,-4,6,7,-13,2,-4,-5,1,-2,-2,2
-15,-26,-40,-48,-38,-19,3,32,60,77,78,81,63,26,-26,-63,0
-117,-114,-102,-95,-86,-82,-88,-82,-83,-78,-75,-61,-58,-44,-29,-38,0
32,17,-2,-18,-43,-80,-123,-134,-126,-111,-82,-50,-1,38,66,70,0
28,17,12,1,-5,-8,-5,-12,-8,2,22,33,46,36,31,33,0
-6,-6,-3,6,-8,-2,-6,8,0,6,10,1,-7,14,6,3,2
2,-7,6,-3,-12,8,1,1,-1,1,-4,-2,-2,-1,-1,-3,2
-42,-64,-68,-50,-35,-14,7,22,31,29,34,31,31,31,16,-7,0
-3,-5,-2,-5,-4,-4,-7,-1,-1,-8,-3,-2,4,-11,-8,1,2
-12,-1,-3,-2,-5,-3,-9,0,15,-13,-8,-4,5,-9,-2,-4,2
-5,-1,-1,2,-3,3,-7,2,-8,-4,-1,-1,-4,-6,-3,-1,2
-2,42,16,-2,-16,30,10,31,-10,30,5,-13,-18,15,2,14,3
-1,-5,-7,-2,-4,-9,-3,2,-5,-2,-4,0,-9,-1,-2,0,3
4,-14,-4,-1,6,-13,-11,3,-2,-1,0,-1,-14,9,-12,13,2
65,59,35,-2,-48,-87,-111,-105,-86,-71,-74,-64,-45,-16,6,9,0
64,6,-1,17,66,9,8,3,51,11,8,28,69,17,6,8,1
0,-3,5,-2,14,-6,-2,-6,2,-3,-2,1,-1,-6,0,6,2
-115,-120,-113,-105,-101,-91,-89,-87,-85,-76,-80,-94,-103,-96,-85,-71,0
9,-2,26,-11,8,-1,17,-1,23,10,7,-22,22,3,-6,-1,1
-81,-110,-118,-132,-149,-137,-102,-80,-84,-80,-93,-123,-130,-111,-106,-118,0
76,70,80,91,88,68,46,36,20,21,11,1,-17,-10,12,30,0
12,-10,-29,13,-3,-10,-4,3,19,-1,-16,10,16,0,12,-16,1
-6,3,7,-13,-5,7,-4,-7,0,-3,-3,-3,-10,-6,4,3,3
9,7,-1,-2,6,9,5,-6,16,-4,0,-6,13,-7,-1,1,2
31,41,40,-39,22,30,46,-24,13,33,54,-33,15,40,23,-11,1
-11,18,14,-8,2,-3,2,13,-6,17,9,-11,-4,7,5,1,1
-5,1,-2,0,-12,4,0,2,5,3,-2,1,-9,8,8,0,2
-2,-3,-3,1,-5,0,-5,3,-3,-4,4,-6,0,-7,2,-3,3
-56,-47,-35,-40,-28,-31,-64,-94,-100,-88,-76,-46,-33,-55,-60,-56,0
26,15,6,11,32,6,2,0,-17,1,16,35,35,0,-36,-22,0
40,15,-6,-8,41,6,-9,4,24,6,-5,1,17,11,-7,5,1
-5,1,-2,-2,-6,2,-6,1,-8,-2,-2,1,-7,-4,-2,3,2
6,2,3,9,14,-1,9,-2,12,-3,1,14,12,0,9,4,2
-17,-4,15,29,50,71,99,122,149,152,127,98,81,79,72,61,0
5,8,-2,7,17,1,0,1,4,0,20,5,14,9,14,-8,1
1,-4,3,1,-5,2,-2,7,-4,1,7,6,1,3,5,2,3
-3,2,-6,3,27,-28,-5,1,-4,23,13,2,2,11,18,4,3
-4,-11,-2,3,5,-12,4,-11,1,-10,-2,0,2,-12,-4,4,3
8,10,-10,-13,7,6,-24,8,-17,6,1,-3,-10,-2,12,-14,1
9,18,9,-10,12,12,-3,5,-5,5,5,-1,-10,4,10,0,1
3,2,-3,2,15,-7,2,-6,8,-1,-3,2,19,-1,-8,-3,3
7,6,13,-6,16,-5,13,-3,13,0,19,4,28,-3,6,5,1
13,0,11,-14,-8,10,14,-6,12,3,-3,-22,-2,8,-13,-2,1
-1,-1,-2,2,4,-9,3,0,3,-11,-2,3,3,-9,-4,3,2
-16,5,25,44,60,66,67,53,26,-12,-49,-81,-110,-109,-78,-24,0
-9,13,17,15,-6,7,11,24,1,8,3,-2,7,2,7,-7,3
-88,-86,-47,-2,22,19,7,-4,-7,-4,-22,-44,-30,-1,12,23,0
-11,-16,-16,-19,-27,-42,-60,-66,-61,-38,-15,-9,-21,-28,-18,4,0
28,3,-9,-8,16,8,-6,-4,-8,4,-5,17,-1,-6,2,12,3
28,27,9,-3,-7,1,1,4,4,-8,-9,-2,9,17,20,17,0
-23,4,3,-7,-26,-1,4,-1,-28,1,-3,-6,-30,-10,2,3,2
106,82,27,-23,-52,-77,-77,-75,-69,-38,-17,17,37,50,53,20,0
3,3,2,8,-1,-2,4,14,10,-2,4,11,18,9,4,-7,3
-2,-5,-1,-4,-1,-9,-1,-1,6,-6,-4,-4,6,-7,-7,0,2
11,-3,1,-16,3,9,-17,-3,-4,12,5,-22,6,7,-11,-11,1
2,-1,7,8,-5,4,5,11,0,4,5,8,3,6,2,6,3
-27,-26,-31,-50,-70,-89,-113,-128,-128,-120,-112,-101,-95,-86,-75,-67,0
13,-8,1,2,8,-4,3,1,3,5,-9,3,-6,-2,9,1,1
6,-1,-2,-9,10,-3,-1,-11,6,-2,-6,-5,9,-4,-6,-6,3
1,-7,0,5,-20,16,4,-1,-2,-7,-2,-1,-6,-5,7,-8,2
-32,21,17,-31,-34,15,9,-14,-23,5,18,-44,-27,-1,-13,-3,1
29,21,-3,-16,34,10,-8,-5,9,14,-7,-1,15,-2,-5,6,1
142,125,112,91,59,37,17,14,33,69,95,93,89,71,53,51,0
66,63,54,49,41,39,37,28,14,6,10,11,12,16,14,8,0
2,2,-3,6,-1,1,4,2,4,3,-3,0,-1,6,-5,3,3
33,50,72,89,102,98,91,94,105,93,79,53,38,52,78,101,0
-5,-16,-9,-4,-26,-10,-2,4,-8,-24,-9,-12,-37,-3,-13,-1,3
7,-5,2,2,4,5,2,-5,10,-10,4,-2,16,-7,-9,3,2
12,28,36,-48,14,0,19,-6,10,33,55,-60,15,16,33,-25,1
-116,-125,-128,-111,-78,-24,32,80,114,124,96,83,61,55,35,9,0
-75,-53,-39,-45,-55,-77,-93,-101,-102,-96,-91,-73,-63,-63,-66,-73,0
9,-8,2,-6,3,-3,-5,2,-2,-1,-7,-9,3,-11,-7,-4,2
-106,-100,-86,-72,-57,-38,-26,-18,-14,1,-4,-34,-77,-110,-127,-132,0
36,10,-2,-12,34,6,-11,2,17,9,15,-8,23,10,3,-3,1
63,67,91,108,123,129,126,93,45,16,11,33,64,93,119,130,0
1,-10,1,-7,-1,-6,1,-8,-3,-2,-2,2,2,-5,-3,2,3
0,0,5,-3,10,-5,0,-3,1,5,-1,-6,-17,10,8,-3,2
29,8,-7,-3,28,3,-2,-3,5,5,13,13,30,13,-4,-2,1
6,22,31,34,29,30,36,33,21,0,-26,-54,-72,-70,-55,-25,0
0,-1,-8,-6,-8,-1,-6,-1,3,-6,-6,-15,-2,-9,-11,-2,3
-4,0,-1,5,-4,1,0,3,-3,-1,1,-2,-2,-6,5,-3,3
8,8,1,17,9,7,6,12,10,10,5,15,16,11,14,-1,3
-1,-1,6,-5,9,-1,5,-14,1,-1,-2,8,6,-6,0,8,3
9,-11,-17,2,6,-9,-18,3,5,1,8,-10,2,12,3,-11,1
-9,-6,-1,-6,-12,-3,1,-7,-36,5,-5,-4,-29,-7,-7,2,2
-4,3,-1,-3,-12,6,5,-4,6,0,-2,-5,-4,2,2,-1,2
-6,-1,0,-8,-12,4,-10,2,-2,-3,-4,-11,-9,-6,-1,-4,2
4,-6,3,6,8,-8,5,2,5,-2,-1,5,12,-14,9,2,2
26,1,-1,1,26,6,-5,-1,15,15,-14,4,19,2,-3,3,1
-6,-12,-6,-12,-5,-10,-3,-17,1,-5,0,-30,-9,-5,-17,-2,3
71,95,94,96,84,74,63,47,23,10,-18,-40,-55,-43,-14,29,0
-8,5,-1,-6,-9,5,-4,-2,-13,8,8,-3,-12,11,-2,3,2
0,0,6,-4,-3,3,6,-3,-5,-2,-6,13,3,-1,-7,5,3
166,143,103,47,8,-14,-3,-2,-3,2,48,77,80,82,55,18,0
17,79,128,143,108,57,4,-31,-70,-106,-132,-130,-102,-49,11,43,0
6,-24,-33,12,-9,-19,-20,10,29,-19,-42,-4,7,-22,-27,6,1
-10,-9,2,-3,-3,-4,-1,-11,-3,0,-7,1,1,-7,-4,2,3
-20,-25,-14,-16,-29,-16,-13,-18,-6,-21,-9,-17,-22,-14,-9,-7,3
37,4,4,1,45,-5,6,0,54,13,-1,2,57,15,-5,1,2
1,7,4,7,-1,4,12,5,8,13,8,13,9,11,13,9,3
-4,-4,-5,-4,5,-13,-6,-2,-13,11,-4,-4,-4,1,-7,0,2
6,-12,-17,2,3,-8,-18,2,2,1,7,-8,1,9,4,-12,1
-17,-25,-14,-17,-28,-14,-13,-16,4,-18,-10,-22,-16,-11,-12,-7,3
-15,35,13,16,-10,14,7,38,1,-6,-9,5,-1,-12,-3,6,3
-22,1,-15,-28,-30,-52,-54,-42,-21,-8,0,3,-25,-59,-68,-89,0
3,-1,4,-6,-16,16,2,-2,0,1,1,-6,-5,3,8,-11,2
15,13,3,-24,16,4,-16,3,20,13,1,-37,2,16,-22,1,3
-17,-40,-27,-13,-31,-18,-21,-26,-30,-9,-7,-1,-44,4,-5,-1,3
20,2,-1,1,15,6,-5,5,6,9,-11,15,16,-6,0,9,1
3,11,5,-8,-1,12,12,-12,8,4,21,-20,-8,14,16,-9,1
-80,-100,-106,-107,-112,-119,-93,-40,-2,22,18,-21,-65,-100,-132,-153,0
-162,-136,-97,-35,17,23,8,-15,-24,-42,-49,-64,-64,-49,-26,1,0
-95,-56,-34,-36,-26,-9,15,32,21,-23,-95,-175,-243,-257,-219,-155,0
1,6,2,-2,-4,5,6,-1,7,-3,-1,-5,11,-2,-6,-5,1
1,-7,-6,1,-6,1,-1,-6,0,-7,-1,-1,1,-4,-4,-1,2
-4,2,6,-17,-19,12,-5,-1,-1,-2,1,-9,-1,-5,-10,4,2
1,-7,7,0,0,-4,6,0,9,-8,-4,3,1,-4,0,3,2
-23,1,9,-18,-22,6,-4,-11,-23,9,-1,-38,-32,6,-21,-4,1
-5,-5,0,4,-9,3,-1,1,-3,4,-8,-7,5,-11,-6,-3,2
-3,18,-3,-12,-10,12,2,-3,-2,-1,3,-8,-11,3,-3,2,1
-26,-40,-56,9,60,66,57,33,8,-19,-10,-1,-9,2,35,26,0
26,6,5,4,29,4,7,2,26,-6,4,7,23,8,-3,4,2
8,-2,3,5,14,4,-4,1,17,-5,-3,11,19,-7,0,9,2
-8,12,7,9,16,4,3,-1,-5,7,-5,0,-4,11,3,-13,1
-6,11,9,-2,2,10,4,-3,-5,25,11,-16,10,11,11,-17,1
26,14,-9,-19,-14,15,65,107,116,122,113,72,27,29,18,-16,0
-4,0,2,-12,-10,2,-3,-2,-8,-6,-14,8,-10,-9,-6,4,1
-135,-123,-91,-62,-35,-17,-6,-1,-1,-11,-26,-39,-52,-56,-84,-110,0
-4,14,11,-1,-11,7,13,10,-2,13,-1,-9,2,2,-3,1,2
0,1,1,2,1,-7,-5,15,3,-16,-10,-1,-1,-11,-10,-2,3
5,1,-4,3,6,2,-3,-1,-13,9,-1,0,-2,3,-2,-3,2
-5,-5,-2,-2,-1,-8,-6,0,6,-7,-3,-2,11,-7,-7,-1,2
-24,51,128,155,134,78,25,-1,16,40,52,37,17,9,11,36,0
7,-2,3,1,10,-2,1,0,3,2,-1,-3,6,-4,1,-1,2
-9,-9,-27,36,7,-16,-10,11,-10,-8,-42,47,1,-18,-14,17,1
4,-13,-7,-3,7,-16,-1,-9,-4,-14,-8,19,-22,-3,7,11,3
-4,-7,-5,3,-19,7,-3,2,1,2,-4,-5,6,-2,-8,-3,2
9,21,29,41,60,76,94,95,73,43,0,-34,-54,-51,-42,-29,0
121,142,148,131,72,55,55,21,-29,24,74,87,82,101,114,59,0
0,6,-13,-12,-3,-9,-18,10,-4,12,-7,1,-6,2,4,1,1
-1,-2,4,-4,8,-2,6,-14,1,-3,-3,8,5,-6,-2,8,3
36,41,32,19,1,-1,17,34,41,40,37,24,10,0,-4,-4,0
32,10,-4,27,45,4,7,10,17,22,4,10,28,5,17,2,1
-2,-3,-2,-7,-3,-3,-6,-1,0,-6,-2,-5,4,-11,-7,1,2
7,-3,-3,2,12,-10,0,2,5,-10,-2,4,9,-10,-4,3,2
11,-7,-12,3,15,-14,-4,-2,-4,-8,-3,-21,-10,-10,-18,2,1
4,-2,6,-10,-5,5,-2,-1,-10,4,7,-14,-7,7,-5,-9,1
-75,-110,-154,-191,-183,-150,-115,-56,-2,9,20,14,5,-39,-70,-65,0
-17,-16,-12,13,53,84,77,57,24,-20,-39,-45,-40,-35,-19,-4,0
-3,-3,-7,-2,-10,-5,-5,4,-5,-8,-12,4,-12,-3,-11,5,3
-1,-13,-8,3,24,-7,-13,-23,-4,2,7,27,13,6,18,-6,3
-91,-98,-77,-42,-28,-45,-56,-58,-16,3,15,1,-22,-39,-58,-79,0
-1,5,-7,-7,-6,2,-7,2,-3,-4,-5,-3,-3,-11,2,-2,2
-4,-7,-5,4,7,-6,2,-14,5,-18,-1,6,-5,-8,3,2,2
-28,-34,-35,-31,-2,-28,-38,-41,-45,-35,-10,23,64,88,44,-8,0
3,-9,-2,-6,-5,1,-7,-2,5,5,3,-14,4,11,-7,-9,1
-6,6,1,-1,-8,8,1,0,3,5,0,-6,-3,5,0,-1,2
-10,7,-7,-12,-6,-5,-12,2,-9,-4,-6,-5,-21,-1,-5,2,2
-2,7,2,-1,-4,8,1,1,11,-4,2,-4,13,-2,-4,-2,2
-2,4,-43,28,2,-4,-18,6,4,-13,-49,24,-12,-13,-18,10,1
-8,-17,-25,-33,-38,-51,-78,-100,-111,-109,-107,-92,-74,-65,-45,-39,0
-1,-1,-11,-7,4,-4,-11,-11,-8,-9,-5,2,-6,-12,-4,2,2
1,-10,-4,3,1,-11,0,1,4,-4,-3,-1,5,-3,1,-5,2
-1,9,-2,3,-3,7,2,3,0,1,-2,-2,-6,4,-2,2,3
3,-19,-28,14,-9,-20,-16,14,23,-9,-27,0,8,-13,-8,-1,1
4,-5,-9,-8,-1,-4,-12,-2,-6,-8,-8,6,-3,-3,-10,0,1
-14,-13,-10,15,-11,-18,-9,16,6,-15,-22,16,-5,-6,-7,3,1
-102,-95,-63,-38,-20,-23,-46,-71,-97,-94,-81,-52,-32,-41,-71,-118,0
-22,-24,-14,-16,-28,-16,-13,-19,-8,-23,-8,-14,-24,-15,-8,-6,3
9,0,-6,-2,14,-4,-1,-8,-6,-5,-3,19,17,-1,-12,1,1
-23,-23,-14,-14,-28,-16,-12,-19,-9,-24,-7,-11,-24,-16,-6,-5,3
-4,1,-3,-5,-14,4,-3,2,0,6,-2,-3,-11,7,6,-1,2
10,1,-10,26,22,-14,13,7,9,7,-8,6,16,1,-5,2,3
0,5,1,-5,12,-4,2,-8,-5,18,11,-13,-10,16,3,2,3
1,-13,-6,-6,-6,-10,-7,0,-2,-5,-2,-5,-6,-1,-6,-1,2
14,17,-6,3,12,24,-3,-5,10,28,-1,-9,10,20,8,-10,1
-4,-12,-14,6,-27,-5,-1,8,-10,-9,-9,4,-22,-8,4,3,3
-129,-101,-43,14,63,108,153,185,208,216,203,177,132,69,-10,-92,0
23,-1,3,13,34,-7,3,8,48,1,2,17,43,9,8,8,2
1,-1,-4,-1,2,0,1,-7,-3,0,-4,3,1,-11,5,0,3
-1,-1,-7,7,37,-35,-4,-1,0,31,9,-2,10,12,8,7,3
-10,-4,7,10,1,4,-5,3,2,5,-4,7,9,-1,-2,3,1
-8,7,-6,-16,-7,-4,-12,-1,-13,-3,-5,-6,-23,-2,-3,1,2
-88,-61,-18,13,13,4,-14,-41,-56,-67,-80,-105,-95,-68,-80,-94,0
-1,-2,-3,-5,-12,1,-1,2,-3,11,1,0,-4,7,3,4,2
9,8,-2,2,1,16,-1,1,21,-14,2,-1,7,3,0,-3,2
21,12,3,24,71,-7,0,-5,23,2,8,24,35,4,11,8,3
6,8,8,6,0,6,2,20,10,8,7,4,11,-2,16,3,3
-6,-19,-10,8,6,-13,4,-23,-1,-31,-16,17,8,-25,-3,-10,3
4,5,-6,6,6,3,0,1,-5,1,2,4,-7,10,-1,0,2
4,3,-4,-3,13,-7,-5,-2,1,10,2,1,6,4,-1,4,2
26,40,41,20,-27,-69,-81,-73,-35,-3,13,2,-7,-1,8,33,0
-125,-105,-78,-52,-29,-18,-25,-25,-5,20,24,10,-22,-61,-94,-119,0
12,10,7,5,22,4,7,2,13,10,23,-27,9,8,3,-2,1
5,-1,9,3,-5,12,21,-13,7,-8,22,-11,3,-2,12,-4,1
2,-12,-5,-1,1,4,-25,4,7,8,-4,-11,13,-3,-11,1,1
-1,6,7,10,5,6,7,5,-3,15,6,4,2,10,7,2,2
7,-1,2,4,14,3,-5,1,16,-7,-2,10,19,-8,-2,8,2
-23,-42,-43,-51,-40,-14,1,4,18,29,23,30,36,22,-18,-30,0
2,1,-10,12,0,-3,3,6,3,-23,-19,17,9,-28,-9,6,3
8,4,-10,27,22,-14,13,8,9,5,-9,6,15,0,-6,3,3
-146,-133,-111,-85,-62,-33,-39,-62,-69,-59,-34,-8,20,6,-39,-62,0
1,-1,-1,4,1,-6,-1,8,8,-5,2,8,14,4,1,-7,3
-45,-39,-35,-23,7,43,78,99,100,83,53,24,-14,-44,-63,-83,0
17,23,5,4,13,-3,31,7,15,3,32,-20,-2,11,20,-1,1
-6,10,-2,8,4,-3,6,3,-1,9,-4,-3,10,-8,-4,3,2
33,-3,-24,-5,22,-4,-21,4,13,0,-9,-7,7,3,-11,-2,1
1,-8,1,-5,1,-6,3,-10,-3,-4,-2,5,1,-6,-2,4,3
-26,-3,-4,-4,-32,-1,-2,-3,-32,-12,-4,-4,-35,-17,-2,1,2
-35,-13,17,33,48,43,17,-20,-57,-84,-91,-78,-67,-68,-77,-76,0
-2,5,2,-7,-1,1,-10,8,-3,3,4,-9,2,1,-8,-2,1
16,6,-1,17,11,1,3,22,14,-12,-8,5,18,-16,-4,2,3
2,7,-2,-4,12,0,-2,-6,-10,6,7,2,-5,4,5,0,2
13,-12,-13,-36,-24,8,-17,-15,5,8,2,-11,16,2,-8,-8,3
2,-4,-12,-18,-21,-20,-18,-12,1,22,60,88,90,60,15,-26,0
12,17,-6,-20,24,4,-11,-14,12,7,3,-16,25,2,-7,-14,3
-7,-3,-5,-7,-10,-3,-8,-1,2,-4,-2,-10,7,-8,-7,-6,2
-45,-62,-51,-27,-6,-12,-30,-35,-19,23,65,78,48,-6,-36,-32,0
3,11,9,5,11,6,0,12,-21,13,9,4,-9,5,5,5,3
6,1,-17,4,-3,1,-5,1,-1,-16,-16,18,-1,-15,-10,10,1
1,9,0,0,3,1,-3,9,-1,9,18,15,-13,26,22,6,2
-3,3,0,-2,-9,4,1,2,-6,-2,-2,-8,-23,9,-3,0,2
-41,-50,-48,-44,-36,-30,-25,-63,-100,-96,-87,-85,-70,-57,-63,-64,0
7,-8,-4,-2,1,-9,8,-7,7,7,1,2,6,5,8,-2,3
3,5,-4,5,1,-3,5,7,8,5,-3,2,14,-4,2,0,3
-6,5,-3,-8,3,-1,-16,1,2,20,3,-19,37,-19,-6,-6,1
-3,9,15,28,2,15,20,13,1,2,10,7,19,-9,7,4,3
8,1,-5,8,12,-1,-1,0,-1,0,-9,11,11,-5,-4,-1,1
-6,3,2,3,8,10,-1,-15,-5,7,6,9,14,-3,13,-6,3
8,10,-8,5,37,-5,0,-19,13,-10,-12,11,27,-19,-5,-2,3
6,2,-8,-6,0,-3,-1,-2,14,7,-1,-10,-9,34,-1,-12,1
12,-13,-4,5,8,-8,-2,2,1,13,-1,-4,2,10,1,-3,2
0,-5,-6,-2,-9,-9,2,4,-1,8,-3,-4,2,5,-7,0,2
-134,-145,-160,-157,-160,-141,-127,-120,-95,-94,-98,-71,-42,-43,-19,-22,0
-163,-140,-111,-74,-52,-34,-17,5,24,36,47,35,6,-29,-57,-83,0
-4,-8,-13,-4,-17,0,-9,-3,21,-3,-9,-20,-6,10,-12,-5,1
-2,7,0,-7,-13,11,7,-7,5,1,0,-7,-4,5,1,-3,2
-82,-94,-90,-77,-66,-55,-48,-28,-19,-5,18,39,56,56,41,11,0
5,1,2,-4,-8,11,5,-5,2,1,0,-4,-6,2,-2,5,2
-9,1,-1,0,-8,3,-4,1,-6,-1,-1,-9,-12,-1,-1,-3,2
-76,-63,-51,-19,21,52,67,78,69,60,38,20,-5,-36,-52,-62,0
-92,-90,-102,-104,-99,-95,-88,-91,-90,-106,-118,-130,-130,-121,-109,-90,0
42,27,-8,-15,31,20,-4,-2,33,10,24,-31,34,21,-2,-17,1
3,5,3,3,3,8,3,1,7,-3,7,7,4,8,4,2,2
-56,-53,-41,-50,-68,-81,-89,-98,-82,-64,-57,-43,-31,-17,-13,19,0
24,3,2,2,34,-3,-2,2,65,-8,-1,16,47,13,2,10,2
0,-10,-11,10,-14,-2,-7,11,-2,0,-3,1,0,17,-11,-10,2
0,-1,-1,6,0,2,0,2,-4,-5,1,2,2,-2,-6,-1,3
-149,-148,-118,-79,-44,-20,-11,-21,-37,-42,-38,-37,-35,-37,-30,-32,0
-9,5,6,-1,1,-2,4,-3,9,6,8,4,10,7,6,4,1
-4,12,6,-13,6,1,-3,-3,0,8,-2,-11,-2,4,-2,-6,1
-8,-14,0,-20,-25,7,-17,-7,2,-2,3,-30,-25,20,-13,-7,3
-102,-72,-41,-5,8,-2,-26,-56,-75,-80,-66,-54,-52,-51,-43,-49,0
0,-9,-12,0,-4,-12,-2,-5,-6,-4,0,4,-6,3,4,-7,3
-13,-4,-5,-4,-16,-5,-5,-1,-18,-4,-2,-3,-24,1,0,-3,2
9,14,8,-8,9,8,6,0,0,17,12,-10,-2,16,10,-6,1
14,1,22,34,20,-24,-34,-18,-11,1,51,109,144,146,117,48,0
8,7,15,8,15,6,16,1,-6,18,17,-8,5,7,16,-7,1
27,7,-12,-11,23,-3,-7,-2,-4,4,16,8,20,12,-5,-4,1
-4,-9,1,7,1,-7,0,1,-6,8,-6,-6,6,-3,-9,-3,2
-12,-1,-12,-25,-27,-30,-42,-56,-83,-101,-99,-74,-42,-25,-13,-4,0
-1,-6,1,-2,14,-17,-6,1,0,-7,3,-4,-5,0,4,-6,2
-4,2,-1,-8,-8,-5,-1,3,-6,2,0,-19,-10,-3,-4,-6,1
42,37,46,41,55,71,77,62,30,23,24,27,22,23,34,65,0
-58,-27,-1,8,22,58,59,37,10,-31,-69,-106,-89,-67,-42,-30,0
50,23,9,8,64,17,14,-6,59,36,13,6,64,41,11,-1,1
-132,-130,-117,-89,-45,20,72,99,96,48,-34,-136,-225,-290,-323,-317,0
-40,-49,-47,-11,5,-17,-23,-5,-15,-36,-38,-36,-39,-23,12,11,0
-3,-9,-9,-1,3,-6,-6,-12,-1,-4,2,3,2,0,1,-4,3
-8,10,12,-11,-25,19,11,-2,-15,7,8,-17,-16,10,-1,-10,3
-4,-1,-2,-6,-4,2,-1,-9,-3,-1,3,4,-1,-5,8,0,3
127,100,79,76,93,79,42,-1,-22,-3,37,78,102,110,125,135,0
47,24,10,12,17,25,37,54,64,71,76,64,44,39,48,40,0
-2,5,16,3,0,8,13,0,-1,23,18,-9,11,17,13,-10,1
2,-8,5,-2,0,-6,5,-2,1,5,2,2,1,6,-2,5,2
0,0,-7,-5,-7,-2,-5,0,2,-3,-5,-13,-1,-8,-7,-3,3
-22,-10,3,8,12,2,-11,-23,-41,-64,-91,-103,-115,-115,-101,-71,0
4,5,-10,1,23,-4,-11,-8,5,1,6,-9,19,2,-14,-4,3
-44,-35,-35,-40,-29,-20,-11,-1,8,3,3,0,-11,-27,-44,-52,0
-1,-7,-6,-4,-8,-6,-5,1,7,-12,-10,-5,-7,1,-12,-1,2
-9,3,16,0,9,-5,11,-6,5,-1,11,5,9,8,0,3,1
-17,-10,-13,-8,-20,-18,-14,4,-3,-15,-29,3,-15,-20,-11,2,1
-55,-49,-44,-41,-39,-25,-21,-5,1,-4,-24,-41,-40,-44,-43,-54,0
-53,-42,-42,-43,-45,-39,-36,-24,-28,-49,-68,-77,-78,-79,-68,-53,0
14,18,-5,0,13,22,-5,-3,12,27,2,-11,9,21,11,-12,1
8,17,-4,-6,8,11,4,-8,4,-3,7,-7,5,1,-4,-2,1
-5,-5,-1,4,-9,2,0,1,-1,4,-9,-8,5,-11,-5,-3,2
-2,9,-13,-14,-4,-8,-18,10,-2,13,-9,-2,-7,2,3,3,1
-1,-9,-11,-1,-4,2,-19,-1,-11,-12,0,2,-11,-16,-2,7,1
-90,-105,-84,-49,-17,11,17,14,1,-3,-28,-60,-110,-155,-183,-184,0
28,35,44,-24,17,33,54,-21,34,13,38,-53,14,19,12,-14,1
98,129,138,129,91,28,-21,-84,-130,-106,-69,10,89,145,188,159,0
4,6,7,12,5,12,6,5,15,-6,3,13,9,6,5,5,2
8,-7,-1,-11,-1,5,-12,-3,0,9,4,-18,5,8,-9,-10,1
11,-9,6,-2,11,3,0,-8,17,-2,-2,8,13,5,1,3,2
3,-3,-2,3,3,-4,4,-2,-7,5,1,-3,5,-8,-1,0,2
-5,-7,3,7,5,-8,2,-1,22,-10,-6,7,18,-4,-5,4,2
-4,-23,-10,-3,-34,-8,-3,4,-8,-21,-10,-11,-32,0,-14,-4,3
8,0,-6,34,13,-4,10,17,12,-19,-6,27,23,-13,6,-1,3
-1,9,7,3,4,6,4,4,4,7,7,5,7,6,4,4,3
-4,-2,0,-1,-1,1,3,-9,-2,-2,4,7,0,-5,11,-1,3
-6,4,-5,2,-9,1,-4,6,0,4,-1,-2,-8,7,-2,2,2
17,9,-8,-15,20,5,-20,-2,13,7,6,-16,14,5,-7,-2,1
23,2,6,-14,0,12,-3,9,18,19,2,-3,28,7,2,0,3
1,2,-1,14,-3,2,1,16,4,8,3,4,7,2,2,7,3
11,6,-9,-9,10,3,-10,-2,5,9,-11,-14,11,-8,-14,1,1
-10,6,-2,4,-7,-2,6,1,-5,-1,2,2,-4,-5,3,4,2
-2,-7,-6,7,-1,-2,5,-11,-2,-1,0,-3,-4,-5,1,2,3
-3,-2,1,1,1,1,5,-9,-3,-2,4,8,1,-5,11,1,3
-4,6,6,-6,6,2,-1,-5,1,4,-2,-14,0,-4,-9,2,3
-5,-6,-5,-4,-7,-6,-8,0,2,-22,-8,-7,-9,-19,-3,-5,2
-3,1,-1,-16,-2,-6,-5,-6,11,-1,-10,-6,2,4,-9,-2,1
55,70,100,118,116,80,40,2,-33,-60,-92,-119,-133,-114,-78,-31,0
-80,-121,-146,-161,-153,-112,-23,28,42,43,9,-39,-62,-69,-90,-94,0
12,-21,-34,-27,-2,25,29,23,17,-11,-40,-55,-29,-14,-18,-29,0
3,7,-8,-4,-6,3,-1,2,3,7,-15,-1,-8,10,-14,5,1
9,36,39,38,34,15,-1,-16,-28,-38,-41,-44,-64,-69,-64,-53,0
5,12,2,1,6,7,1,5,9,7,12,-7,11,7,3,0,3
3,2,-3,-1,14,-7,2,-7,6,-1,-3,1,17,-3,-7,-3,3
1,1,-3,-1,-5,7,-4,0,-2,3,-3,4,-5,-3,5,7,2
2,6,7,8,-5,16,4,7,9,-4,7,9,7,5,7,3,2
24,1,-12,-16,20,-7,-11,-5,-1,0,5,1,16,3,-12,-1,1
2,-9,-5,10,8,-16,-3,10,7,5,-2,2,-9,16,7,-2,2
40,39,17,-14,-30,-20,-1,16,6,-16,-41,-51,-37,-26,-15,-17,0
15,-4,-2,-3,13,0,-3,-3,15,0,1,-4,17,1,-4,-2,2
8,16,11,11,-22,26,9,31,4,22,0,-9,6,11,2,-2,3
-1,10,5,9,18,0,7,-1,-4,14,11,-1,3,10,5,2,2
21,-1,2,-7,11,16,-5,-8,-3,7,22,3,9,4,14,2,1
89,90,91,78,62,19,3,6,31,45,58,61,47,45,47,57,0
-4,4,3,3,14,-7,-2,2,-2,2,7,1,12,-4,-1,0,3
-2,3,1,1,-7,4,4,3,5,-3,-1,-2,1,-4,-3,6,2
2,2,-8,-10,1,6,-15,-6,4,11,-2,-8,-5,14,-3,0,1
83,93,71,23,-29,-61,-66,-44,-3,24,40,48,53,55,55,56,0
2,2,3,3,-7,10,6,0,0,1,-1,0,-8,-2,5,4,2
-18,41,91,103,101,98,96,77,40,-12,-64,-88,-85,-57,-20,20,0
5,-3,-7,2,20,-6,-2,-16,5,14,7,9,18,10,7,-1,3
0,39,58,66,64,52,30,6,-18,-62,-105,-137,-137,-126,-98,-72,0
-8,-3,-16,9,-2,0,-15,0,-6,-16,-13,27,1,-16,8,0,1
74,61,75,116,67,46,44,13,7,42,71,64,55,54,55,52,0
24,-1,-18,-19,-2,29,62,59,22,-37,-84,-101,-98,-67,-43,-38,0
4,43,69,68,62,39,29,30,25,2,-35,-68,-90,-86,-63,-40,0
9,9,14,-19,3,9,10,-9,-8,-7,-1,21,-12,2,8,7,1
-19,0,56,114,132,132,100,37,-27,-34,-19,-13,-3,14,17,-3,0
-5,-2,3,2,-5,3,1,0,-3,0,5,-5,-7,9,0,-5,2
-21,-13,4,23,44,53,33,-14,-57,-70,-69,-51,-38,-41,-47,-44,0
-26,-17,2,19,36,61,69,65,49,38,13,-10,-26,-37,-36,-32,0
-4,1,-3,0,-3,-4,-1,1,-3,0,-1,-1,-1,-3,-1,-1,2
-103,-147,-188,-197,-157,-78,4,80,129,155,151,125,74,20,-28,-88,0
-96,-65,-37,10,63,102,105,81,24,-73,-163,-224,-220,-177,-114,-63,0
3,-4,-2,1,9,-13,-5,6,6,0,-5,2,19,-6,-2,-9,3
-1,4,8,12,1,4,5,14,2,11,7,13,1,19,9,4,3
21,1,7,-34,5,12,-14,-9,12,-14,-2,-18,-6,-2,-7,-6,1
3,13,5,1,-4,19,3,4,12,-1,-1,-8,11,5,-9,-5,3
-8,9,-7,-3,-7,-3,0,1,-8,-3,-1,3,-5,-5,0,2,2
-10,-2,-14,-4,-4,-18,-12,5,6,-2,4,-26,-2,-9,-7,0,1
-3,-1,-4,-8,2,-2,-9,-7,12,-14,-4,0,13,-13,-5,-2,2
-8,-4,-7,1,-8,-14,-7,12,-6,-3,-2,-3,-15,-4,4,1,3
-5,-2,-2,0,-3,-3,-4,1,-4,1,1,-3,-7,4,-5,3,2
0,4,-9,3,1,3,-2,-3,2,1,1,-14,-5,4,-2,-7,3
-11,2,-4,-7,-9,-3,-1,-8,-13,-4,0,-3,-21,1,0,0,2
57,70,57,51,50,70,96,118,147,158,166,157,115,60,15,-6,0
-13,6,-4,2,-9,-4,-2,5,-16,2,1,4,-21,6,1,4,2
-6,3,-1,-8,-9,4,-6,0,7,-4,-1,-7,7,-4,-4,-3,2
-6,7,6,-3,-7,3,1,8,-3,13,3,-2,7,6,6,-7,2
17,-11,-12,-23,-22,10,-10,-7,-9,1,-11,3,-21,3,-2,4,3
0,6,1,0,9,-8,6,-1,2,5,5,-9,9,-5,-2,1,1
-24,-28,-22,27,-27,-9,-19,7,1,-20,-47,32,-10,-13,-27,16,1
-4,28,34,19,-9,-73,-132,-143,-95,-44,12,61,66,31,-12,-32,0
6,-2,-15,-26,-26,-18,-16,-9,-11,-17,-26,-30,-31,-38,-40,-35,0
-9,-15,10,5,-18,-6,19,-5,7,12,-3,-20,6,9,-12,-6,1
5,-3,2,-6,3,-2,-1,-1,14,-11,-5,-3,-1,-3,-2,0,2
-11,-17,6,-10,-7,-11,-7,-6,-10,-17,-7,-1,0,-18,-5,-11,3
-1,8,-1,-9,4,0,-4,-3,-4,-2,-12,-1,-13,1,-10,5,2
1,3,-11,-2,-4,9,-10,-5,-5,2,-7,-22,-15,3,-11,-9,1
26,-5,-27,-5,11,-5,-26,9,6,-2,-12,-8,2,-3,-16,1,1
5,-4,-14,-5,-13,1,-27,22,-2,-11,-13,9,-13,4,-8,1,1
29,42,43,-39,22,30,48,-25,14,32,54,-35,12,39,26,-11,1
2,1,5,-11,0,-1,-6,4,4,3,3,-8,5,-1,-4,1,3
22,2,-2,-12,11,12,-6,-7,-6,6,20,6,9,4,12,2,1
1,3,2,2,7,-2,7,-4,2,-7,-1,4,2,-4,0,0,3
16,-7,2,-3,17,-8,0,0,28,-1,0,3,31,3,-2,-1,2
-5,3,7,-15,-5,8,-4,-8,-1,1,-3,-5,-8,-6,4,2,3
-4,4,-5,-4,-8,4,-6,0,-3,-6,-2,4,-9,-1,2,2,2
6,-1,-2,-6,12,-6,0,-10,4,-3,-5,-1,10,-6,-2,-7,3
-21,-76,-120,-155,-160,-140,-109,-71,-54,-56,-71,-82,-78,-60,-6,51,0
-2,-5,0,-3,15,-17,-4,-4,0,-6,1,-1,-2,-3,1,-3,2
12,0,-7,-24,-2,-4,-11,-1,8,-3,-6,-5,1,1,-15,7,1
-6,13,9,8,-1,9,13,3,6,14,8,-3,4,19,8,-4,1
57,42,17,-25,-49,-54,-52,-34,-3,8,21,44,75,69,53,18,0
-19,6,-2,-1,-11,0,-4,-2,6,-13,-12,-10,5,-15,-24,5,1
0,1,1,3,7,12,-3,-11,-7,6,7,8,9,0,12,-7,3
-2,3,-1,8,10,2,4,-7,2,-5,-4,-1,10,-13,-2,-4,2
-119,-152,-170,-152,-101,-27,43,98,126,109,68,15,-36,-84,-119,-146,0
4,-6,-6,-5,-27,12,0,3,-7,-3,0,-5,-17,3,-6,4,3
7,-14,1,10,4,-10,-1,12,11,-4,-6,-1,14,-2,0,-10,2
-4,3,2,-16,-2,-7,-2,-5,-3,0,1,-17,1,-9,-13,2,3
-16,-31,-19,13,37,53,58,52,28,-11,-19,-17,-20,-31,-74,-113,0
9,10,13,3,16,5,12,1,-2,20,17,-13,12,9,8,-7,1
43,10,-2,6,43,4,5,3,28,14,-4,-5,45,-1,-7,-3,3
-28,-66,-98,-145,-154,-157,-144,-107,-55,7,48,75,73,56,28,-1,0
-1,-6,-6,3,-2,-1,3,-10,0,-1,1,-9,-3,-6,-3,3,3
-1,6,3,2,6,-3,4,3,7,-14,3,1,-8,1,5,-1,2
-1,-5,-7,7,-5,2,0,-4,6,-6,-2,4,2,8,-5,-4,1
77,20,2,10,77,23,7,3,56,27,14,10,64,27,11,4,1
19,6,8,5,2,3,-9,-22,-40,-57,-80,-95,-94,-90,-81,-60,0
121,150,170,169,145,94,7,-85,-171,-232,-276,-306,-288,-237,-166,-92,0
-5,14,6,-16,1,4,-9,2,-1,-10,-3,0,-3,-5,-2,-4,1
-1,-2,-3,9,-1,-5,0,8,5,-5,-3,5,4,-4,6,-3,3
8,-6,2,5,9,-2,2,0,4,-5,6,4,5,-1,3,3,2
9,12,-48,-8,54,47,43,66,107,138,97,79,30,-12,-16,-62,0
-5,7,8,-5,4,4,0,-2,1,8,-1,-13,2,-2,-8,3,3
8,9,18,-5,-3,16,18,-1,33,6,7,-30,21,-2,0,-3,1
1,-2,-3,-10,9,-5,-7,-10,-4,-9,-8,-17,-5,-14,-19,1,3
39,54,64,71,50,15,-22,-43,-40,-21,-5,1,-2,-3,-6,-16,0
8,18,-4,9,44,2,8,-22,15,-5,-11,19,39,-15,1,-7,3
11,5,10,-4,-2,14,12,-2,22,7,4,-23,15,-6,0,2,1
-1,-2,-1,0,-14,6,1,4,1,-10,3,4,-9,3,2,2,2
4,-9,-5,-1,-9,7,-5,-4,-2,1,-5,-2,-7,-3,-3,5,2
-5,-7,0,-18,-10,9,-16,-14,7,7,5,-20,-11,24,-8,-6,3
-1,-2,-3,-1,-4,1,-5,2,-5,-1,5,-9,-2,-7,0,-2,3
54,49,39,-49,21,36,51,-14,33,40,46,-72,18,31,19,-21,1
2,-8,-3,9,10,-12,-5,6,3,4,-9,8,1,4,1,0,2
-10,7,-3,3,-2,-2,-3,3,-9,-3,0,-4,-4,2,-10,-4,1
-18,-35,-61,-78,-77,-60,-51,-58,-65,-81,-89,-86,-74,-56,-35,-4,0
-5,-7,-6,-3,-8,-5,-9,2,5,-20,-9,-8,-7,-18,-3,-4,2
1,7,-3,-2,-6,4,-1,6,9,5,9,-6,9,11,6,-9,1
9,-6,-2,13,46,-9,-8,-14,2,2,12,31,25,4,19,-1,3
8,0,-23,-14,-9,4,-30,6,20,-6,-25,-5,0,-2,-23,8,1
-150,-182,-177,-129,-84,-27,10,4,-42,-91,-128,-158,-164,-151,-134,-121,0
0,0,-4,-4,-2,1,-8,0,4,-3,-3,-6,2,-1,-13,3,3
-77,-80,-87,-94,-94,-80,-61,-47,-24,-5,11,32,56,70,64,49,0
-6,-15,-9,-4,-19,-16,-3,3,-9,-24,-10,-9,-34,-8,-10,0,3
5,-9,-6,-7,11,-19,-8,-1,4,0,-5,-2,24,-11,-5,-11,3
9,-5,1,8,11,-1,0,3,-2,5,-4,3,5,2,-3,-1,2
20,13,11,6,37,5,9,-1,24,8,-1,4,39,-7,1,2,3
0,5,0,8,7,8,4,-4,6,18,3,-9,8,7,5,-2,1
47,44,49,49,64,71,77,75,75,68,52,54,43,38,35,48,0
-9,1,-3,-1,-6,-4,-3,1,2,-6,-2,1,-3,0,-4,2,2
8,-2,6,2,5,3,10,-4,5,4,2,-3,6,3,0,-2,3
-44,-28,0,35,44,40,27,12,-3,-25,-16,-20,-11,-15,-17,-24,0
-13,13,7,-1,-3,9,2,-3,-10,9,5,2,-12,11,8,0,2
-7,0,-3,-10,1,1,-11,-9,-16,6,-12,-9,-4,-8,-13,-6,2
-87,-47,-12,1,0,-14,-34,-54,-65,-72,-83,-86,-95,-107,-134,-140,0
-3,1,0,4,5,-6,2,1,-15,-7,-3,2,-12,-9,-4,1,2
-4,-5,-6,-13,6,5,-15,-25,2,10,2,6,3,17,5,-6,3
-3,-2,-2,-7,-6,3,-6,-5,-1,-7,-5,3,1,-8,-1,-2,2
3,11,-2,-4,-7,8,3,5,5,11,1,1,4,7,2,5,2
3,1,8,4,-25,21,8,13,0,-1,-1,0,-5,5,3,-4,3
48,23,22,33,38,55,75,88,82,78,84,97,94,75,35,-7,0
31,36,36,-41,19,26,40,-23,10,33,55,-34,20,39,17,-11,1
3,4,-5,8,0,-4,7,7,7,4,-2,6,13,-4,3,2,3
0,-3,2,-1,-8,3,1,2,2,-2,2,2,5,3,-1,-3,2
29,44,47,50,58,54,46,31,20,0,-41,-76,-101,-96,-71,-28,0
-23,-14,-1,-3,8,7,-1,-15,-29,-44,-51,-39,-21,-2,20,42,0
-20,-24,-20,1,-16,-20,-5,-22,-17,-15,-8,26,-10,-21,12,5,3
15,-3,11,-12,-10,8,18,-5,15,2,-5,-17,-1,8,-10,-2,1
34,7,-5,24,43,4,8,5,18,16,0,11,22,1,15,7,1
-6,-10,-27,4,-27,-11,-12,11,-7,-19,-35,13,-23,-22,-11,9,1
32,34,23,19,7,-4,-18,-24,-32,-32,-20,-8,-2,4,7,11,0
6,12,10,-22,1,16,-1,-10,-4,2,9,-11,2,0,-1,-4,1
-3,1,7,-1,8,-9,3,4,-5,4,-3,0,-18,13,1,-1,2
6,8,0,-7,21,-4,-8,-4,1,26,-2,16,19,15,11,-3,3
-7,-17,-3,9,3,-18,4,-7,-5,-10,0,13,2,-12,6,2,3
-10,4,6,1,-5,-4,-2,14,25,27,10,-2,10,24,44,39,0
2,-2,1,-10,4,-6,0,-7,-1,-5,1,2,5,-10,0,3,3
-1,2,-11,-5,-16,7,-6,0,3,1,-7,-7,-6,-2,-3,0,2
-65,-50,-53,-59,-40,-49,-72,-99,-123,-131,-116,-97,-113,-143,-145,-131,0
11,-2,-29,0,-1,-5,-31,17,-2,-8,-12,-8,-6,-12,-19,7,1
2,-1,10,6,14,-6,3,5,0,6,5,-3,3,12,-4,-4,2
-2,-7,1,1,-14,8,3,-4,-2,-6,-4,1,-9,-2,6,-7,2
31,2,1,-14,-39,-21,7,23,34,41,0,-64,-89,-108,-132,-120,0
1,7,1,7,1,6,9,-1,-1,12,2,-1,2,10,-5,6,3
-10,1,1,-4,-5,-5,-5,3,1,6,-2,-2,12,-5,0,-3,2
-1,-10,3,2,-2,-7,-5,7,-3,-1,0,1,11,-11,-7,3,2
-4,-1,1,-3,-4,0,-4,1,6,-11,-4,-2,-6,-2,-4,0,2
-8,2,-4,1,-12,7,-4,1,-7,1,-1,-8,-9,1,-2,-4,2
-99,-84,-56,-7,46,100,127,132,116,87,66,42,11,-38,-87,-116,0
-16,6,-3,-6,-15,3,-6,-2,-23,4,4,-7,-19,3,-4,-2,2
0,-2,-3,1,0,1,-2,-3,2,-2,-5,-4,4,-2,-12,1,3
0,-14,-1,5,11,-15,0,-6,6,-5,1,1,5,7,-4,-6,2
94,124,140,122,91,53,14,-25,-51,-56,-53,-28,2,42,69,90,0
-35,-8,-18,-20,-16,0,22,20,16,25,37,32,15,16,26,35,0
-10,-1,4,-6,-21,4,3,3,12,1,-1,-17,4,-5,-3,-1,2
-56,-46,-40,-29,-21,-26,-42,-56,-82,-94,-111,-120,-132,-129,-102,-59,0
-10,0,5,-6,-7,1,-4,-2,-4,5,-4,4,-3,9,-4,-2,2
39,66,85,93,74,43,16,5,-6,-23,-40,-60,-66,-62,-55,-49,0
2,6,5,17,7,6,14,2,3,1,7,10,12,3,3,2,3
-10,-5,-23,35,7,-19,-4,12,-8,-9,-39,49,2,-18,-8,18,1
0,7,-1,3,0,6,6,-4,7,-1,-2,0,5,-7,2,4,2
2,12,-1,-4,6,2,1,-1,-6,8,-5,5,2,3,-4,1,2
-11,-6,24,8,-10,11,20,-6,1,27,11,-14,2,10,23,-9,1
6,2,-4,-5,9,0,-14,4,-4,-2,0,-11,-12,-2,-8,5,1
3,3,-7,-3,-7,1,-1,3,1,9,-15,-2,-8,11,-14,4,1
-1,-1,-3,6,-1,-5,-1,7,6,-3,-2,3,5,-3,7,-5,3
3,4,0,-10,-6,12,-7,-2,-9,2,7,-6,-14,1,5,3,2
4,2,-1,-15,7,-1,-10,-7,-13,2,11,-30,-31,5,4,-8,3
-167,-167,-128,-77,-39,-20,-19,-26,-45,-53,-57,-70,-94,-112,-119,-101,0
13,6,-11,-5,16,3,-11,-6,10,-5,-19,1,16,-15,-18,3,1
-6,-1,1,8,-9,6,3,2,9,-2,-1,8,-7,11,9,1,2
-10,7,-1,-1,-4,1,1,-3,-4,5,1,-2,-2,-3,7,-3,2
-2,-1,-8,7,-1,-4,-3,3,-4,-4,-8,2,-6,-3,-4,1,3
30,16,26,-49,16,-2,19,-9,30,11,49,-61,-5,24,26,-17,1
-1,7,0,-3,8,-3,0,-2,-1,-16,2,-2,-4,-9,0,-3,2
12,-6,6,-2,10,4,1,-6,15,-1,-2,8,11,3,3,2,2
-2,1,2,-4,-4,1,3,-3,4,-7,-6,-3,-12,1,-2,2,2
-20,38,86,125,118,76,18,-37,-93,-138,-154,-150,-117,-81,-46,-21,0
-7,-12,-17,1,-9,-8,-21,4,-13,-21,-17,4,-11,-18,-13,-5,1
2,-2,-4,1,10,-9,-7,1,2,6,-6,-2,-10,11,2,-3,2
-6,3,1,4,-3,1,-6,9,-15,13,4,3,-10,5,9,3,2
5,27,38,52,65,90,89,78,56,39,13,-19,-40,-50,-34,-8,0
-2,-5,8,-3,-7,5,-1,1,2,-2,2,-6,-1,1,-2,-2,3
2,5,1,-7,10,1,-2,-9,-4,6,6,-9,-6,10,-7,2,3
30,34,26,22,18,32,41,43,44,56,70,68,61,49,58,74,0
4,-2,-1,3,-10,-1,-2,16,2,1,3,4,0,-3,10,3,3
14,-7,1,-12,0,19,-14,-9,18,7,-9,-20,1,3,-5,-2,1
-29,-1,-12,13,-18,-7,-16,12,-7,23,-24,-7,13,-5,-26,3,1
2,-1,-2,-15,0,-2,-11,-3,-2,3,3,-15,-6,8,-6,-8,1
-2,-3,0,-5,-7,1,3,-6,-5,2,-2,-3,-6,-2,-2,3,3
74,62,50,21,-22,-57,-94,-114,-112,-79,-37,0,36,51,54,47,0
0,-2,-4,-8,-7,-3,-10,6,-13,14,1,-12,-2,-2,-2,-4,2
3,2,8,-3,-1,3,7,-1,0,7,3,-2,-6,18,-2,-3,2
-5,11,-5,11,6,-1,6,1,-2,4,-1,3,11,-13,1,6,2
-126,-82,-21,36,90,126,142,149,148,118,49,-33,-104,-141,-133,-103,0
-105,-95,-89,-86,-82,-67,-39,-17,7,4,-19,-38,-55,-73,-94,-99,0
-2,4,3,5,2,11,3,-7,7,7,16,-13,-10,13,22,-8,1
-36,-32,-40,-42,-27,5,28,57,50,23,0,5,-2,-13,7,45,0
9,-2,-2,4,14,-1,-4,1,16,-9,-2,10,20,-9,-1,6,2
-2,5,9,2,-8,10,0,11,6,-2,0,-3,-3,6,-2,0,3
-53,-61,-59,-53,-56,-49,-42,-35,-22,-8,2,5,11,11,3,-7,0
-49,-84,-65,-29,39,60,50,15,-31,-52,-36,-52,-51,-35,-65,-101,0
21,-6,-13,-28,-2,-1,-19,-4,9,-14,-3,-9,-3,-6,-17,10,1
6,1,-7,-7,2,-5,-2,-3,19,10,-3,-11,-6,30,4,-13,1
2,3,8,4,3,5,9,0,-5,-8,-12,17,2,2,-12,1,1
-2,5,1,12,-7,-11,23,10,16,-1,-21,27,15,-3,20,-8,1
0,4,4,-3,9,-1,5,-8,-1,9,0,-7,5,3,-1,-6,3
-14,48,86,118,125,107,63,-16,-101,-178,-234,-256,-241,-205,-153,-84,0
-1,2,-5,-1,-6,-1,-3,5,-1,-5,-9,1,-9,-3,-7,5,3
2,-1,-7,-8,-11,-3,-2,3,3,3,-5,-6,5,1,-11,0,2
-43,-48,-48,-47,-39,-40,-35,-24,-15,-14,-11,1,8,13,15,7,0
45,5,10,7,53,2,14,-2,72,37,6,-3,60,53,3,-4,1
-18,-6,-12,18,-10,-13,5,-1,-1,-14,-30,12,3,-24,-22,12,1
-63,-49,-22,-38,-46,-17,10,14,10,3,-11,-7,14,3,-29,-47,0
8,2,-4,4,8,-1,-1,2,9,-2,0,3,15,-6,-1,2,2
-7,-14,-10,4,1,-10,1,-19,-3,-27,-12,13,1,-22,-4,-4,3
22,24,38,-24,20,28,26,-15,22,17,34,-23,17,25,16,-7,1
0,7,36,52,78,101,81,26,-9,-25,-40,-34,17,48,57,75,0
-3,4,-3,8,3,2,-1,2,-4,-5,-1,8,11,-11,0,-3,2
45,17,0,-18,-28,-22,-23,-20,-18,-4,9,13,33,54,78,96,0
-13,7,-7,-4,-6,-8,-8,4,-4,-6,-4,0,-16,4,-5,4,2
7,-4,-6,9,7,-4,3,0,5,-8,-1,5,15,-14,-3,3,2
1,0,-1,-6,-1,0,4,-8,-5,2,4,0,6,-10,5,-1,2
-10,-21,-32,-39,-35,-45,-63,-84,-93,-96,-89,-70,-53,-28,-1,15,0
-25,12,16,-45,-35,13,-5,-14,-23,9,2,-44,-38,5,-15,-7,1
11,21,18,-22,22,10,2,-5,2,24,20,-28,10,9,6,-6,1
35,4,-6,-9,30,5,-12,2,17,6,11,-8,20,10,-2,-3,1
-8,0,-3,-5,-8,3,-6,-6,-8,-6,-3,-7,-10,-8,-2,-4,2
-13,-6,-7,21,7,-19,2,4,-3,-10,-8,13,-11,3,4,-3,3
-18,7,14,-37,-32,13,-1,-13,-24,4,2,-29,-36,0,-8,-4,1
80,77,78,63,31,-2,-20,-26,-40,-55,-67,-58,-41,-1,39,77,0
-10,8,-6,11,-6,3,-5,10,0,-6,-10,19,-2,2,-5,7,1
-3,-4,-26,11,-9,-10,-7,5,10,-8,-26,12,-2,-5,-10,4,1
47,26,7,-12,-30,-57,-76,-94,-104,-95,-71,-44,-36,-24,-22,-25,0
17,10,-17,-11,19,-8,-12,1,5,17,-21,-7,3,-8,-10,9,1
-7,2,2,17,4,1,15,-5,5,-6,10,3,7,3,9,-8,1
2,1,4,2,-4,6,2,5,-3,7,6,5,3,6,1,4,3
-4,-8,-8,4,3,-3,1,-16,2,-9,3,-1,8,-4,-8,-2,3
-26,-15,-6,8,-14,3,-23,-5,-18,-3,-5,10,-10,-8,11,-10,1
-5,-3,-5,-14,-19,-1,-6,-1,-15,-1,-2,-9,-18,-4,-1,-5,2
28,30,36,-59,16,6,25,-13,24,14,50,-72,-5,16,19,-14,1
-12,-1,6,3,-14,-2,10,3,-9,4,9,-1,-14,13,9,-5,2
-10,-5,-5,21,12,-18,4,5,3,-5,-4,9,-6,6,3,-1,3
-5,-1,-11,-4,-3,-3,-12,-2,-8,-10,-3,-9,-3,-17,-5,-4,2
4,-5,8,5,0,-1,0,11,1,1,8,9,4,0,9,6,3
-16,9,-12,-4,-11,-3,-4,-4,-1,-5,-5,-5,-3,4,-8,-10,1
151,185,173,108,63,35,-18,-85,-86,-57,12,67,99,81,87,80,0
-41,-48,-78,-72,-40,-35,-38,-49,-43,-44,-56,-70,-92,-146,-145,-129,0
-8,4,-9,2,-1,-10,-2,2,-2,9,-2,-3,8,5,-5,-6,2
1,-3,7,-5,-14,9,2,3,-5,3,-2,-10,-13,-3,-7,9,2
-27,-79,-119,-150,-164,-151,-129,-99,-60,-16,21,32,24,-2,-38,-47,0
73,15,-42,-86,-111,-122,-124,-107,-65,-22,31,81,126,159,185,185,0
-65,-67,-60,-44,-22,-9,-3,-12,-29,-37,-46,-49,-39,1,52,97,0
-14,2,-5,-8,-10,-6,-7,-4,-13,1,0,-1,-20,9,0,-2,2
29,22,21,18,30,53,73,84,87,74,46,32,19,31,45,56,0
9,-3,3,-26,-16,17,-12,-7,1,8,6,-12,-9,9,-2,6,3
-61,-63,-75,-88,-96,-88,-64,-34,-1,19,35,36,26,-12,-60,-103,0
-26,-24,0,-1,-18,-24,-41,-50,-37,-11,-17,-24,-11,-18,-52,-54,0
1,-12,1,3,7,-12,2,-5,1,7,-5,-8,5,0,-10,0,2
-5,13,16,13,-6,8,10,26,5,8,2,-3,8,5,5,-6,3
-2,-6,-7,4,8,-1,0,-17,4,-10,1,-2,10,-5,-9,-4,3
-3,-3,0,4,-7,2,1,2,2,-9,-15,9,-4,-11,4,-1,1
-13,13,-13,-15,-15,11,-27,3,-7,9,-21,-6,-9,-10,-19,13,1
-2,0,-2,-5,11,-10,-10,-1,2,6,-3,-4,15,0,-8,-5,2
30,4,-1,7,22,10,5,3,19,-4,10,1,31,-7,16,-14,1
-18,-6,-10,-16,-15,-19,-15,-1,-8,-14,-32,0,-25,-16,-20,5,1
3,-10,-10,9,6,-7,-11,4,-4,-2,-19,9,-4,-8,-15,10,1
6,0,8,-12,2,5,-5,0,3,4,-3,-3,-1,2,-2,2,3
-57,-46,-54,-57,-65,-75,-75,-62,-70,-60,-37,-36,-45,-56,-61,-76,0
116,114,98,76,50,13,-24,-51,-76,-96,-96,-100,-92,-85,-64,-38,0
2,-12,-1,-8,-5,0,-10,-4,-4,-7,-8,13,-4,-5,7,-3,3
55,-21,-104,-182,-217,-202,-153,-96,-23,42,94,116,101,56,-13,-65,0
-68,-18,41,87,127,158,201,201,199,136,102,60,44,-4,-37,-34,0
2,4,1,3,4,9,-2,-1,5,-3,4,8,2,2,9,2,2
-2,4,2,6,5,-3,4,4,8,-14,4,1,-7,0,5,0,2
3,4,7,-7,3,6,6,-8,-6,11,2,-11,-1,-1,2,-4,3
-106,-90,-68,-34,26,73,74,34,-16,-73,-91,-73,-60,-57,-41,-30,0
29,-5,-17,-14,5,14,11,-1,11,37,71,96,92,54,0,-27,0
27,43,83,148,154,167,184,166,112,63,26,-18,-42,-63,-58,-64,0
28,22,14,19,26,35,48,58,60,49,43,31,23,18,17,19,0
9,-1,-6,-14,-2,9,-23,4,-19,-1,6,-3,-12,-3,13,-16,1
30,25,33,-58,16,3,24,-12,27,12,51,-72,-6,19,20,-15,1
-7,-19,-6,-1,-5,-13,1,-16,-5,-5,-4,-19,-11,-7,-14,1,3
-8,-7,7,3,-37,5,3,23,-5,-13,-2,-23,-38,14,-11,-8,3
-6,12,16,-10,-26,24,14,0,-17,12,7,-24,-20,13,-4,-10,3
22,6,5,6,38,-5,8,-3,33,10,2,9,34,20,3,-2,2
1,-4,-6,-12,-8,-6,-9,2,-3,7,1,-16,-5,6,-7,-5,1
-1,2,3,-6,-2,2,1,-3,-5,4,-1,0,-9,6,-2,3,2
-32,-1,-7,-5,-46,4,-1,-1,-43,-19,-9,-7,-33,-35,-10,0,2
2,10,2,5,-15,19,12,2,-1,5,4,-1,-7,5,3,6,3
40,16,16,-24,21,13,15,-1,30,9,33,-40,8,26,14,-16,1
6,5,0,-4,4,6,-3,1,2,3,-1,-1,11,4,-9,-3,3
28,73,83,65,41,37,-12,-23,-15,-19,-12,22,48,67,65,80,0
0,9,6,-2,-3,11,5,1,1,3,9,3,2,6,-1,10,2
19,36,45,51,44,38,32,29,21,18,11,-12,-31,-49,-63,-79,0
-22,-5,-15,-11,36,41,21,-3,17,27,50,59,45,20,24,43,0
6,-5,-5,6,9,5,-15,2,5,8,-12,-5,12,-2,-14,0,1
-5,14,2,-4,3,8,-3,-2,-13,-3,2,-5,-12,-2,4,-8,2
58,46,23,19,25,29,5,-25,-47,-86,-127,-150,-146,-149,-139,-110,0
-4,6,1,4,0,3,4,0,-7,-10,-3,-1,-9,-11,-1,1,2
-7,-7,-13,-2,-6,-10,-17,4,-11,-11,-28,14,-5,-19,-19,8,1
98,32,7,-1,94,32,5,5,73,27,-7,10,97,-6,5,8,1
0,9,1,7,2,7,9,-1,-2,14,3,-1,3,11,-5,6,3
68,23,-29,-63,-91,-114,-118,-104,-88,-69,-33,-9,3,-1,5,17,0
-5,-6,6,3,-36,8,4,23,-5,-10,-2,-24,-36,17,-13,-8,3
-2,6,7,10,5,6,6,5,0,14,5,2,3,12,4,2,2
-5,30,5,-2,-16,23,7,13,-26,17,9,4,-35,9,13,17,3
76,60,31,-1,-32,-57,-72,-85,-86,-60,-34,-18,-5,19,37,59,0
8,-18,-8,-8,14,-20,-3,-17,-2,-12,-6,8,-11,-4,3,0,3
98,95,72,53,37,26,26,27,29,34,39,44,33,26,14,-8,0
3,3,5,-2,6,0,-2,4,5,-6,0,-4,13,-14,-2,-1,3
-1,10,0,5,0,8,6,1,-1,8,2,-2,-1,8,-2,3,3
-5,10,24,-11,-37,-46,-44,-40,-16,-4,-21,-31,-34,-34,-2,66,0
-3,-6,-27,15,0,-20,-13,12,15,-23,-42,31,11,-31,-20,20,1
4,-4,-4,-7,6,-5,-10,-2,-2,-1,4,-5,-12,5,-10,13,2
11,2,-4,-3,12,-8,3,-1,2,3,1,4,0,1,5,4,2
-10,2,2,-8,-17,2,2,-2,7,6,-7,-13,8,-5,-6,-5,2
-6,7,6,-32,-3,-16,-9,4,-5,-5,-11,10,-8,-7,-2,6,1
7,-5,1,7,10,-1,6,-4,-2,3,-3,0,-8,6,0,1,3
-111,-89,-72,-54,-35,-3,43,77,110,134,137,108,53,-13,-72,-105,0
-2,5,0,2,-7,9,5,-3,4,10,-8,-7,-8,15,-9,0,1
8,10,0,-29,-42,-47,-43,-55,-53,-37,-9,12,27,11,-34,-82,0
2,-1,-6,4,-2,-3,0,4,2,0,-4,1,-2,4,-4,2,3
-7,-3,-3,6,-18,6,4,2,14,-4,-6,-6,12,-5,-8,-2,2
2,-1,7,9,-5,5,5,12,2,2,4,7,2,5,3,5,3
0,-5,-8,-2,-2,-9,-1,-2,-1,-1,5,-1,-2,6,6,-8,3
-7,-4,-3,-5,-12,3,-12,3,-5,5,-5,-8,-8,1,-5,-1,2
-18,-17,-4,6,-16,-16,-15,14,3,-15,-18,3,-10,-9,-8,0,1
2,6,-1,19,5,7,8,6,9,-3,6,13,10,-1,15,0,3
3,7,-3,5,3,-3,5,8,9,7,-3,1,16,-5,3,0,3
1,-5,1,18,10,-11,9,6,-2,4,-2,4,-12,5,9,3,3
36,39,16,-6,-21,-1,42,53,89,116,70,18,-11,-2,68,120,0
3,-30,-68,-88,-111,-141,-165,-167,-165,-156,-118,-82,-69,-40,-20,-13,0
125,130,107,82,68,67,68,71,74,62,63,72,80,86,73,63,0
-91,-74,-66,-55,-37,-11,10,39,65,72,58,31,2,-6,16,82,0
-66,-74,-63,-38,-19,-3,1,18,22,37,40,30,16,-9,-25,-45,0
-7,-2,-2,1,-11,2,-2,2,-2,1,-2,0,-13,7,3,0,2
